POSCAR_8x8x8_CsPbI3
 1.0000000000000000
    50.0564975080270003   -0.3673077840156008   -0.1947531474575192
     0.1080026062895048   50.2714854608814861    0.0722898779950488
     0.2267602394186024   -0.3946697336328496   50.0540138950255979
  Cs   I  Pb
 512 1536 512
Direct
  0.1203153116186000  0.0115574591759738  0.1198163297961481
  0.4953153116186000  0.0115574591759738  0.9948163297961481
  0.2453153116186000  0.3865574591759739  0.8698163297961481
  0.8703153116185999  0.5115574591759738  0.2448163297961481
  0.6203153116186000  0.8865574591759741  0.2448163297961481
  0.2453153116186000  0.3865574591759739  0.9948163297961481
  0.8703153116186000  0.5115574591759738  0.1198163297961481
  0.4953153116186000  0.0115574591759738  0.8698163297961481
  0.2453153116186000  0.5115574591759738  0.1198163297961481
  0.8703153116186000  0.3865574591759739  0.9948163297961482
  0.6203153116186000  0.8865574591759741  0.3698163297961481
  0.2453153116186000  0.5115574591759738  0.2448163297961481
  0.4953153116186000  0.0115574591759738  0.7448163297961480
  0.8703153116185999  0.3865574591759739  0.8698163297961482
  0.2453153116186000  0.5115574591759738  0.3698163297961480
  0.6203153116186000  0.8865574591759741  0.4948163297961480
  0.8703153116186000  0.5115574591759738  0.3698163297961481
  0.6203153116186000  0.8865574591759741  0.1198163297961481
  0.2453153116186000  0.3865574591759739  0.7448163297961482
  0.8703153116185999  0.5115574591759738  0.4948163297961481
  0.8703153116186000  0.6365574591759738  0.1198163297961481
  0.2453153116186000  0.3865574591759738  0.1198163297961481
  0.6203153116186000  0.7615574591759739  0.7448163297961480
  0.8703153116186000  0.5115574591759738  0.9948163297961482
  0.4953153116186000  0.1365574591759738  0.3698163297961481
  0.2453153116186000  0.3865574591759739  0.2448163297961481
  0.8703153116185999  0.5115574591759738  0.8698163297961482
  0.8703153116186000  0.3865574591759739  0.7448163297961482
  0.6203153116186000  0.7615574591759741  0.8698163297961481
  0.8703153116186000  0.5115574591759738  0.7448163297961482
  0.4953153116186000  0.1365574591759738  0.2448163297961481
  0.2453153116186000  0.3865574591759739  0.4948163297961480
  0.8703153116185999  0.5115574591759738  0.6198163297961482
  0.6203153116186000  0.7615574591759741  0.9948163297961481
  0.2453153116186000  0.3865574591759738  0.6198163297961481
  0.4953153116186000  0.1365574591759738  0.1198163297961481
  0.2453153116186000  0.3865574591759738  0.3698163297961480
  0.4953153116186000  0.1365574591759738  0.4948163297961481
  0.4953153116186000  0.0115574591759738  0.6198163297961480
  0.8703153116185999  0.3865574591759738  0.6198163297961482
  0.2453153116186000  0.6365574591759738  0.3698163297961481
  0.8703153116186001  0.2615574591759738  0.7448163297961482
  0.7453153116186001  0.0115574591759738  0.1198163297961481
  0.2453153116186000  0.6365574591759738  0.4948163297961480
  0.3703153116186000  0.8865574591759741  0.9948163297961482
  0.8703153116186000  0.2615574591759738  0.6198163297961482
  0.2453153116186000  0.6365574591759737  0.6198163297961481
  0.7453153116186000  0.0115574591759738  0.2448163297961481
  0.8703153116186000  0.2615574591759738  0.4948163297961481
  0.3703153116186000  0.8865574591759741  0.8698163297961482
  0.2453153116186000  0.6365574591759738  0.7448163297961480
  0.8703153116186001  0.2615574591759738  0.3698163297961481
  0.7453153116186000  0.0115574591759738  0.3698163297961481
  0.2453153116186000  0.6365574591759738  0.8698163297961481
  0.8703153116186000  0.2615574591759738  0.2448163297961481
  0.4953153116186000  0.0115574591759738  0.1198163297961481
  0.8703153116186000  0.2615574591759738  0.8698163297961482
  0.2453153116186000  0.6365574591759738  0.2448163297961481
  0.6203153116186000  0.8865574591759741  0.9948163297961481
  0.6203153116186000  0.8865574591759741  0.6198163297961480
  0.2453153116186000  0.5115574591759738  0.6198163297961481
  0.8703153116185999  0.3865574591759739  0.4948163297961481
  0.4953153116186000  0.0115574591759738  0.4948163297961480
  0.2453153116186000  0.5115574591759738  0.7448163297961480
  0.8703153116186000  0.3865574591759738  0.3698163297961481
  0.6203153116186000  0.8865574591759738  0.7448163297961480
  0.2453153116186000  0.5115574591759738  0.4948163297961480
  0.2453153116186000  0.5115574591759738  0.8698163297961481
  0.8703153116185999  0.3865574591759739  0.2448163297961481
  0.2453153116186000  0.5115574591759738  0.9948163297961481
  0.6203153116186000  0.8865574591759741  0.8698163297961481
  0.8703153116186000  0.3865574591759738  0.1198163297961481
  0.4953153116186000  0.0115574591759738  0.2448163297961481
  0.2453153116186000  0.6365574591759738  0.1198163297961481
  0.8703153116186001  0.2615574591759738  0.9948163297961482
  0.4953153116186000  0.0115574591759738  0.3698163297961481
  0.3703153116186000  0.8865574591759738  0.7448163297961482
  0.2453153116186000  0.2615574591759738  0.9948163297961481
  0.8703153116185999  0.6365574591759738  0.2448163297961481
  0.8703153116186000  0.8865574591759738  0.3698163297961481
  0.6203153116186000  0.6365574591759738  0.3698163297961481
  0.2453153116186000  0.0115574591759738  0.8698163297961482
  0.8703153116185999  0.8865574591759741  0.2448163297961481
  0.4953153116186000  0.2615574591759738  0.7448163297961482
  0.2453153116186000  0.0115574591759738  0.9948163297961482
  0.8703153116186000  0.8865574591759738  0.1198163297961481
  0.6203153116186000  0.6365574591759738  0.4948163297961480
  0.2453153116186000  0.1365574591759738  0.1198163297961481
  0.4953153116186000  0.2615574591759738  0.6198163297961482
  0.8703153116186001  0.7615574591759739  0.9948163297961482
  0.2453153116186000  0.1365574591759738  0.2448163297961481
  0.6203153116186000  0.6365574591759737  0.6198163297961481
  0.8703153116186000  0.7615574591759739  0.8698163297961482
  0.4953153116186000  0.2615574591759738  0.4948163297961481
  0.2453153116186000  0.0115574591759738  0.7448163297961482
  0.4953153116186000  0.2615574591759738  0.8698163297961481
  0.8703153116185999  0.8865574591759738  0.4948163297961481
  0.6203153116186000  0.6365574591759738  0.2448163297961481
  0.6203153116186000  0.5115574591759738  0.8698163297961481
  0.9953153116186000  0.0115574591759738  0.1198163297961481
  0.4953153116186000  0.3865574591759738  0.2448163297961481
  0.2453153116186000  0.0115574591759738  0.1198163297961481
  0.8703153116186000  0.8865574591759738  0.9948163297961482
  0.6203153116186000  0.5115574591759738  0.9948163297961481
  0.2453153116186000  0.0115574591759738  0.2448163297961481
  0.2453153116186000  0.1365574591759738  0.3698163297961480
  0.8703153116185999  0.8865574591759738  0.8698163297961482
  0.2453153116186000  0.0115574591759738  0.3698163297961480
  0.8703153116186000  0.8865574591759738  0.7448163297961482
  0.6203153116186000  0.6365574591759738  0.1198163297961481
  0.2453153116186000  0.0115574591759738  0.4948163297961480
  0.4953153116186000  0.2615574591759738  0.9948163297961481
  0.8703153116185999  0.8865574591759738  0.6198163297961481
  0.2453153116186000  0.0115574591759738  0.6198163297961481
  0.4953153116186000  0.3865574591759738  0.1198163297961481
  0.6203153116186000  0.7615574591759739  0.6198163297961480
  0.8703153116186001  0.7615574591759738  0.7448163297961482
  0.2453153116186000  0.1365574591759738  0.4948163297961480
  0.6203153116186000  0.7615574591759741  0.2448163297961481
  0.2453153116186000  0.2615574591759738  0.3698163297961480
  0.4953153116186000  0.1365574591759738  0.8698163297961481
  0.8703153116186000  0.6365574591759738  0.7448163297961482
  0.2453153116186000  0.2615574591759738  0.4948163297961480
  0.6203153116186000  0.7615574591759741  0.3698163297961481
  0.8703153116185999  0.6365574591759737  0.6198163297961482
  0.4953153116186000  0.1365574591759738  0.7448163297961482
  0.2453153116186000  0.2615574591759738  0.6198163297961481
  0.8703153116185999  0.6365574591759738  0.4948163297961481
  0.6203153116186000  0.7615574591759739  0.4948163297961480
  0.2453153116186000  0.2615574591759738  0.7448163297961482
  0.8703153116186000  0.6365574591759738  0.3698163297961481
  0.4953153116186000  0.1365574591759738  0.6198163297961482
  0.2453153116186000  0.2615574591759738  0.8698163297961482
  0.8703153116185999  0.6365574591759738  0.8698163297961482
  0.2453153116186000  0.2615574591759738  0.2448163297961481
  0.4953153116186000  0.1365574591759738  0.9948163297961481
  0.8703153116186000  0.6365574591759738  0.9948163297961482
  0.8703153116186000  0.7615574591759738  0.6198163297961482
  0.4953153116186000  0.2615574591759738  0.3698163297961481
  0.2453153116186000  0.1365574591759738  0.6198163297961481
  0.8703153116186000  0.7615574591759739  0.4948163297961481
  0.6203153116186000  0.6365574591759738  0.8698163297961481
  0.2453153116186000  0.1365574591759738  0.7448163297961482
  0.4953153116186000  0.2615574591759738  0.2448163297961481
  0.6203153116186000  0.6365574591759737  0.7448163297961480
  0.8703153116186001  0.7615574591759739  0.3698163297961481
  0.6203153116186000  0.6365574591759737  0.9948163297961481
  0.8703153116186000  0.7615574591759739  0.2448163297961481
  0.4953153116186000  0.2615574591759738  0.1198163297961481
  0.2453153116186000  0.1365574591759738  0.9948163297961482
  0.8703153116186001  0.7615574591759738  0.1198163297961481
  0.7453153116186000  0.5115574591759738  0.1198163297961481
  0.2453153116186000  0.2615574591759738  0.1198163297961481
  0.2453153116186000  0.1365574591759738  0.8698163297961482
  0.2453153116186000  0.6365574591759738  0.9948163297961481
  0.8703153116186001  0.2615574591759738  0.1198163297961481
  0.7453153116185998  0.0115574591759738  0.4948163297961480
  0.3703153116186000  0.6365574591759738  0.3698163297961481
  0.3703153116186000  0.1365574591759738  0.9948163297961482
  0.7453153116186001  0.7615574591759739  0.1198163297961481
  0.7453153116186000  0.2615574591759738  0.8698163297961482
  0.3703153116186000  0.2615574591759738  0.1198163297961481
  0.3703153116186000  0.6365574591759738  0.2448163297961481
  0.7453153116186000  0.6365574591759738  0.9948163297961481
  0.3703153116186000  0.2615574591759738  0.2448163297961481
  0.7453153116186001  0.2615574591759738  0.9948163297961482
  0.7453153116186000  0.6365574591759738  0.8698163297961481
  0.3703153116186000  0.6365574591759738  0.1198163297961481
  0.3703153116186000  0.2615574591759738  0.3698163297961481
  0.7453153116186001  0.6365574591759738  0.7448163297961480
  0.7453153116186001  0.3865574591759738  0.1198163297961481
  0.3703153116186000  0.2615574591759738  0.4948163297961481
  0.7453153116186000  0.7615574591759741  0.2448163297961481
  0.3703153116186000  0.1365574591759738  0.8698163297961482
  0.7453153116186001  0.2615574591759738  0.7448163297961482
  0.7453153116186000  0.7615574591759739  0.3698163297961481
  0.7453153116186000  0.7615574591759739  0.9948163297961481
  0.7453153116186001  0.2615574591759738  0.3698163297961480
  0.3703153116186000  0.1365574591759738  0.2448163297961481
  0.7453153116186000  0.7615574591759739  0.8698163297961481
  0.3703153116186000  0.6365574591759738  0.7448163297961482
  0.3703153116186000  0.1365574591759738  0.3698163297961481
  0.7453153116186001  0.7615574591759739  0.7448163297961480
  0.7453153116186000  0.6365574591759737  0.6198163297961481
  0.7453153116186000  0.2615574591759738  0.4948163297961480
  0.3703153116186000  0.6365574591759737  0.6198163297961482
  0.7453153116186001  0.7615574591759739  0.6198163297961481
  0.3703153116186000  0.1365574591759738  0.6198163297961482
  0.7453153116186000  0.2615574591759738  0.6198163297961481
  0.7453153116186000  0.7615574591759739  0.4948163297961480
  0.3703153116186000  0.6365574591759738  0.4948163297961481
  0.3703153116185999  0.1365574591759738  0.7448163297961482
  0.3703153116186000  0.1365574591759738  0.4948163297961481
  0.3703153116186000  0.1365574591759738  0.1198163297961481
  0.3703153116186000  0.5115574591759738  0.9948163297961482
  0.7453153116185998  0.6365574591759738  0.4948163297961480
  0.3703153116186000  0.3865574591759739  0.4948163297961481
  0.7453153116186001  0.3865574591759739  0.7448163297961482
  0.7453153116186000  0.5115574591759738  0.6198163297961481
  0.3703153116186000  0.5115574591759738  0.3698163297961481
  0.3703153116186000  0.3865574591759738  0.6198163297961482
  0.7453153116186000  0.5115574591759738  0.4948163297961480
  0.7453153116186000  0.3865574591759739  0.8698163297961482
  0.3703153116186000  0.3865574591759739  0.7448163297961482
  0.7453153116186000  0.5115574591759738  0.3698163297961480
  0.3703153116185999  0.5115574591759738  0.2448163297961481
  0.3703153116186000  0.3865574591759739  0.8698163297961482
  0.7453153116186000  0.5115574591759738  0.2448163297961481
  0.7453153116186000  0.3865574591759739  0.9948163297961481
  0.3703153116186000  0.3865574591759739  0.9948163297961482
  0.3703153116186000  0.5115574591759738  0.1198163297961481
  0.7453153116186000  0.5115574591759738  0.7448163297961482
  0.3703153116186000  0.5115574591759738  0.4948163297961481
  0.3703153116186000  0.3865574591759738  0.3698163297961481
  0.7453153116186001  0.3865574591759738  0.6198163297961481
  0.7453153116186000  0.3865574591759738  0.2448163297961481
  0.3703153116186000  0.2615574591759738  0.7448163297961482
  0.3703153116186000  0.5115574591759738  0.8698163297961482
  0.7453153116186000  0.6365574591759738  0.3698163297961480
  0.3703153116186000  0.2615574591759738  0.8698163297961482
  0.7453153116186000  0.3865574591759738  0.3698163297961480
  0.7453153116186000  0.6365574591759738  0.2448163297961481
  0.3703153116186000  0.2615574591759738  0.6198163297961482
  0.3703153116186000  0.5115574591759738  0.7448163297961482
  0.7453153116186001  0.6365574591759738  0.1198163297961481
  0.7453153116186000  0.3865574591759739  0.4948163297961480
  0.3703153116186000  0.3865574591759738  0.1198163297961481
  0.7453153116186000  0.5115574591759738  0.9948163297961481
  0.3703153116186000  0.5115574591759738  0.6198163297961482
  0.3703153116185999  0.3865574591759739  0.2448163297961481
  0.7453153116185998  0.5115574591759738  0.8698163297961481
  0.3703153116186000  0.2615574591759738  0.9948163297961482
  0.3703153116186000  0.6365574591759738  0.8698163297961482
  0.7453153116186001  0.8865574591759738  0.1198163297961481
  0.7453153116186001  0.2615574591759738  0.2448163297961481
  0.7453153116186000  0.0115574591759738  0.9948163297961482
  0.8703153116186000  0.1365574591759738  0.2448163297961481
  0.3703153116186000  0.8865574591759738  0.1198163297961481
  0.2453153116186000  0.7615574591759739  0.9948163297961481
  0.8703153116186001  0.1365574591759738  0.1198163297961481
  0.7453153116186001  0.1365574591759738  0.1198163297961481
  0.2453153116186000  0.8865574591759738  0.1198163297961481
  0.8703153116186000  0.0115574591759738  0.9948163297961481
  0.3703153116186000  0.7615574591759739  0.9948163297961482
  0.2453153116186000  0.8865574591759738  0.2448163297961481
  0.8703153116185999  0.0115574591759738  0.8698163297961481
  0.7453153116186001  0.1365574591759738  0.2448163297961481
  0.2453153116186000  0.8865574591759738  0.3698163297961481
  0.3703153116186000  0.7615574591759741  0.8698163297961482
  0.8703153116186000  0.0115574591759738  0.7448163297961482
  0.2453153116186000  0.7615574591759739  0.8698163297961481
  0.8703153116186001  0.1365574591759738  0.3698163297961481
  0.3703153116186000  0.8865574591759741  0.2448163297961481
  0.2453153116186000  0.7615574591759738  0.7448163297961480
  0.2453153116186000  0.7615574591759738  0.1198163297961481
  0.3703153116186000  0.8865574591759738  0.6198163297961481
  0.8703153116186001  0.1365574591759738  0.9948163297961481
  0.2453153116186000  0.7615574591759739  0.2448163297961481
  0.7453153116186000  0.0115574591759738  0.6198163297961481
  0.8703153116186000  0.1365574591759738  0.8698163297961481
  0.3703153116186000  0.8865574591759741  0.4948163297961480
  0.2453153116186000  0.8865574591759738  0.4948163297961480
  0.2453153116186000  0.7615574591759739  0.3698163297961481
  0.7453153116186001  0.0115574591759738  0.7448163297961482
  0.2453153116186000  0.7615574591759739  0.4948163297961480
  0.8703153116186000  0.1365574591759738  0.6198163297961482
  0.3703153116186000  0.8865574591759741  0.3698163297961481
  0.2453153116186000  0.7615574591759738  0.6198163297961481
  0.8703153116186000  0.1365574591759738  0.4948163297961481
  0.7453153116186000  0.0115574591759738  0.8698163297961482
  0.8703153116186001  0.1365574591759738  0.7448163297961482
  0.7453153116186001  0.1365574591759738  0.3698163297961481
  0.8703153116185999  0.0115574591759738  0.6198163297961482
  0.3703153116185999  0.7615574591759739  0.7448163297961482
  0.7453153116186000  0.1365574591759738  0.8698163297961482
  0.7453153116186001  0.8865574591759738  0.7448163297961480
  0.3703153116186000  0.7615574591759741  0.2448163297961481
  0.3703153116186000  0.0115574591759738  0.4948163297961481
  0.7453153116186000  0.8865574591759738  0.6198163297961481
  0.7453153116186001  0.1365574591759738  0.9948163297961482
  0.3703153116186000  0.0115574591759738  0.6198163297961482
  0.3703153116186000  0.0115574591759738  0.3698163297961481
  0.7453153116186000  0.8865574591759738  0.4948163297961480
  0.3703153116186000  0.0115574591759738  0.7448163297961482
  0.7453153116186001  0.8865574591759741  0.3698163297961481
  0.7453153116186001  0.2615574591759738  0.1198163297961481
  0.3703153116186000  0.0115574591759738  0.8698163297961481
  0.3703153116186000  0.6365574591759738  0.9948163297961482
  0.7453153116186001  0.8865574591759741  0.2448163297961481
  0.3703153116186000  0.0115574591759738  0.9948163297961481
  0.3703153116186000  0.7615574591759739  0.1198163297961481
  0.1203153116186000  0.8865574591759738  0.9948163297961481
  0.7453153116186000  0.8865574591759741  0.8698163297961481
  0.3703153116186000  0.0115574591759738  0.2448163297961481
  0.2453153116186000  0.8865574591759738  0.6198163297961481
  0.8703153116185999  0.0115574591759738  0.4948163297961481
  0.7453153116186001  0.1365574591759738  0.4948163297961480
  0.2453153116186000  0.8865574591759737  0.7448163297961480
  0.8703153116186000  0.0115574591759738  0.3698163297961481
  0.3703153116186000  0.7615574591759739  0.6198163297961481
  0.2453153116186000  0.8865574591759738  0.8698163297961481
  0.3703153116186000  0.7615574591759741  0.3698163297961481
  0.8703153116185999  0.0115574591759738  0.2448163297961481
  0.2453153116186000  0.8865574591759738  0.9948163297961481
  0.3703153116186000  0.7615574591759739  0.4948163297961481
  0.8703153116186000  0.0115574591759738  0.1198163297961481
  0.6203153116186000  0.0115574591759738  0.1198163297961481
  0.3703153116186000  0.0115574591759738  0.1198163297961481
  0.7453153116186001  0.8865574591759738  0.9948163297961481
  0.7453153116186001  0.1365574591759738  0.7448163297961482
  0.7453153116186001  0.1365574591759738  0.6198163297961481
  0.9953153116185999  0.0115574591759738  0.2448163297961481
  0.6203153116186000  0.7615574591759739  0.1198163297961481
  0.6203153116186000  0.0115574591759738  0.9948163297961481
  0.1203153116186000  0.1365574591759738  0.7448163297961480
  0.6203153116186000  0.1365574591759738  0.1198163297961481
  0.1203153116186000  0.6365574591759738  0.1198163297961481
  0.6203153116186000  0.3865574591759738  0.1198163297961481
  0.9953153116186001  0.7615574591759741  0.3698163297961481
  0.9953153116186000  0.3865574591759737  0.1198163297961481
  0.4953153116185999  0.7615574591759739  0.9948163297961481
  0.1203153116186000  0.5115574591759738  0.9948163297961481
  0.4953153116186000  0.6365574591759738  0.1198163297961481
  0.1203153116186000  0.1365574591759738  0.8698163297961481
  0.9953153116185999  0.3865574591759738  0.2448163297961481
  0.6203153116186000  0.2615574591759738  0.9948163297961481
  0.9953153116186001  0.2615574591759738  0.9948163297961481
  0.1203153116186000  0.5115574591759738  0.8698163297961481
  0.6203153116186000  0.1365574591759738  0.2448163297961481
  0.9953153116186000  0.3865574591759737  0.3698163297961481
  0.4953153116186000  0.6365574591759738  0.2448163297961481
  0.1203153116186000  0.5115574591759738  0.7448163297961480
  0.1203153116186000  0.1365574591759738  0.9948163297961481
  0.6203153116186000  0.2615574591759738  0.8698163297961481
  0.9953153116185999  0.3865574591759738  0.4948163297961481
  0.9953153116186001  0.7615574591759739  0.1198163297961481
  0.1203153116186000  0.5115574591759737  0.6198163297961481
  0.4953153116185999  0.7615574591759739  0.8698163297961481
  0.4953153116186000  0.6365574591759738  0.3698163297961481
  0.9953153116185999  0.3865574591759737  0.6198163297961482
  0.9953153116186000  0.7615574591759741  0.2448163297961481
  0.1203153116186000  0.2615574591759738  0.1198163297961481
  0.4953153116185999  0.5115574591759738  0.9948163297961481
  0.9953153116186000  0.7615574591759739  0.4948163297961481
  0.9953153116186000  0.2615574591759738  0.2448163297961481
  0.1203153116186000  0.6365574591759738  0.8698163297961481
  0.6203153116186000  0.0115574591759738  0.8698163297961481
  0.4953153116185999  0.5115574591759737  0.6198163297961482
  0.1203153116186000  0.1365574591759738  0.3698163297961481
  0.9953153116186001  0.2615574591759738  0.3698163297961481
  0.1203153116186000  0.6365574591759738  0.7448163297961480
  0.9953153116186001  0.7615574591759739  0.7448163297961482
  0.6203153116186000  0.3865574591759738  0.4948163297961480
  0.4953153116186000  0.8865574591759741  0.2448163297961481
  0.9953153116186000  0.2615574591759738  0.4948163297961480
  0.1203153116186000  0.6365574591759737  0.6198163297961480
  0.1203153116186000  0.6365574591759738  0.2448163297961481
  0.1203153116186000  0.1365574591759738  0.4948163297961480
  0.9953153116186000  0.2615574591759738  0.6198163297961480
  0.6203153116186000  0.3865574591759738  0.3698163297961481
  0.1203153116186000  0.6365574591759738  0.4948163297961480
  0.9953153116186000  0.7615574591759739  0.6198163297961482
  0.9953153116186000  0.6365574591759738  0.1198163297961481
  0.9953153116186001  0.2615574591759738  0.7448163297961480
  0.4953153116185999  0.5115574591759738  0.8698163297961481
  0.1203153116186000  0.6365574591759738  0.3698163297961481
  0.1203153116186000  0.1365574591759738  0.6198163297961481
  0.4953153116186000  0.8865574591759738  0.1198163297961481
  0.6203153116186000  0.3865574591759738  0.2448163297961481
  0.9953153116186000  0.2615574591759738  0.8698163297961481
  0.4953153116185999  0.5115574591759738  0.7448163297961482
  0.1203153116186000  0.5115574591759738  0.4948163297961480
  0.6203153116186000  0.2615574591759738  0.7448163297961480
  0.9953153116186000  0.6365574591759737  0.9948163297961481
  0.1203153116186000  0.2615574591759738  0.6198163297961481
  0.9953153116185999  0.5115574591759738  0.4948163297961481
  0.6203153116186000  0.2615574591759738  0.2448163297961481
  0.1203153116186000  0.3865574591759738  0.6198163297961481
  0.9953153116185999  0.6365574591759738  0.4948163297961481
  0.4953153116185999  0.7615574591759739  0.4948163297961481
  0.9953153116185999  0.5115574591759737  0.6198163297961482
  0.4953153116186000  0.6365574591759737  0.9948163297961481
  0.1203153116186000  0.3865574591759738  0.4948163297961480
  0.1203153116186000  0.2615574591759738  0.7448163297961480
  0.6203153116186000  0.2615574591759738  0.1198163297961481
  0.9953153116186000  0.5115574591759738  0.7448163297961482
  0.6203153116186000  0.1365574591759738  0.6198163297961481
  0.9953153116186000  0.6365574591759738  0.3698163297961481
  0.6203153116186000  0.1365574591759738  0.7448163297961480
  0.4953153116185999  0.7615574591759739  0.1198163297961481
  0.9953153116185999  0.5115574591759738  0.8698163297961481
  0.1203153116186000  0.2615574591759738  0.8698163297961481
  0.1203153116186000  0.3865574591759738  0.2448163297961481
  0.6203153116186000  0.1365574591759738  0.9948163297961481
  0.4953153116185999  0.7615574591759739  0.3698163297961481
  0.9953153116185999  0.6365574591759738  0.2448163297961481
  0.9953153116186000  0.5115574591759738  0.9948163297961481
  0.1203153116186000  0.3865574591759738  0.1198163297961481
  0.4953153116185999  0.7615574591759739  0.2448163297961481
  0.1203153116186000  0.2615574591759738  0.9948163297961481
  0.1203153116186000  0.3865574591759738  0.3698163297961481
  0.4953153116186000  0.6365574591759738  0.8698163297961481
  0.1203153116186000  0.3865574591759738  0.7448163297961480
  0.9953153116185999  0.6365574591759737  0.6198163297961482
  0.9953153116186000  0.3865574591759738  0.7448163297961482
  0.6203153116186000  0.1365574591759738  0.3698163297961481
  0.1203153116186000  0.5115574591759737  0.3698163297961481
  0.4953153116186000  0.6365574591759738  0.4948163297961481
  0.1203153116186000  0.2615574591759738  0.2448163297961481
  0.9953153116185999  0.3865574591759739  0.8698163297961481
  0.4953153116185999  0.7615574591759738  0.7448163297961482
  0.6203153116186000  0.2615574591759738  0.6198163297961481
  0.1203153116186000  0.5115574591759738  0.2448163297961481
  0.9953153116185999  0.6365574591759738  0.8698163297961481
  0.9953153116186000  0.3865574591759738  0.9948163297961481
  0.4953153116186000  0.6365574591759737  0.6198163297961482
  0.1203153116186000  0.5115574591759737  0.1198163297961481
  0.1203153116186000  0.2615574591759738  0.3698163297961481
  0.6203153116186000  0.2615574591759738  0.4948163297961480
  0.9953153116186000  0.5115574591759737  0.1198163297961481
  0.6203153116186000  0.1365574591759738  0.4948163297961480
  0.4953153116186000  0.3865574591759738  0.3698163297961481
  0.9953153116186000  0.6365574591759737  0.7448163297961482
  0.1203153116186000  0.3865574591759738  0.9948163297961481
  0.4953153116186000  0.6365574591759737  0.7448163297961482
  0.9953153116185999  0.5115574591759738  0.2448163297961481
  0.4953153116185999  0.7615574591759739  0.6198163297961482
  0.1203153116186000  0.2615574591759738  0.4948163297961480
  0.1203153116186000  0.3865574591759739  0.8698163297961481
  0.6203153116186000  0.2615574591759738  0.3698163297961481
  0.9953153116186000  0.5115574591759737  0.3698163297961481
  0.6203153116186000  0.3865574591759738  0.6198163297961481
  0.9953153116186000  0.7615574591759741  0.8698163297961481
  0.6203153116186000  0.1365574591759738  0.8698163297961481
  0.1203153116186000  0.6365574591759738  0.9948163297961481
  0.6203153116186000  0.5115574591759737  0.1198163297961481
  0.9953153116186000  0.8865574591759741  0.3698163297961481
  0.1203153116186000  0.7615574591759739  0.7448163297961480
  0.4953153116186000  0.8865574591759738  0.6198163297961482
  0.4953153116186000  0.8865574591759738  0.8698163297961481
  0.4953153116186000  0.3865574591759738  0.6198163297961482
  0.1203153116186000  0.0115574591759738  0.3698163297961481
  0.1203153116186000  0.8865574591759738  0.4948163297961480
  0.1203153116186000  0.0115574591759738  0.8698163297961481
  0.9953153116186000  0.1365574591759738  0.4948163297961480
  0.4953153116185999  0.5115574591759737  0.1198163297961481
  0.1203153116186000  0.7615574591759739  0.6198163297961480
  0.9953153116185999  0.0115574591759738  0.6198163297961480
  0.6203153116186000  0.5115574591759737  0.3698163297961481
  0.6203153116186000  0.0115574591759738  0.2448163297961481
  0.6203153116186000  0.5115574591759737  0.6198163297961481
  0.9953153116186000  0.1365574591759738  0.6198163297961480
  0.9953153116185999  0.8865574591759741  0.2448163297961481
  0.6203153116186000  0.0115574591759738  0.6198163297961481
  0.9953153116186001  0.1365574591759738  0.3698163297961481
  0.9953153116186000  0.0115574591759738  0.7448163297961480
  0.9953153116186000  0.8865574591759738  0.7448163297961482
  0.6203153116186000  0.5115574591759738  0.4948163297961480
  0.9953153116185999  0.8865574591759738  0.6198163297961482
  0.6203153116186000  0.0115574591759738  0.3698163297961481
  0.1203153116186000  0.8865574591759738  0.1198163297961481
  0.4953153116186000  0.8865574591759738  0.7448163297961482
  0.1203153116186000  0.0115574591759738  0.6198163297961481
  0.1203153116186000  0.8865574591759741  0.2448163297961481
  0.4953153116186000  0.3865574591759738  0.7448163297961482
  0.4953153116186000  0.3865574591759739  0.8698163297961481
  0.9953153116186001  0.1365574591759738  0.1198163297961481
  0.1203153116186000  0.7615574591759739  0.4948163297961480
  0.9953153116185999  0.0115574591759738  0.8698163297961481
  0.6203153116186000  0.5115574591759738  0.2448163297961481
  0.1203153116186000  0.0115574591759738  0.4948163297961480
  0.9953153116185999  0.8865574591759741  0.4948163297961481
  0.9953153116186000  0.1365574591759738  0.2448163297961481
  0.6203153116186000  0.0115574591759738  0.4948163297961480
  0.1203153116186000  0.8865574591759741  0.3698163297961481
  0.1203153116186000  0.0115574591759738  0.7448163297961480
  0.1203153116186000  0.7615574591759739  0.8698163297961481
  0.4953153116186000  0.3865574591759738  0.9948163297961481
  0.1203153116186000  0.7615574591759739  0.9948163297961481
  0.1203153116186000  0.8865574591759738  0.6198163297961480
  0.6203153116186000  0.3865574591759738  0.9948163297961481
  0.9953153116185999  0.8865574591759741  0.8698163297961481
  0.1203153116186000  0.7615574591759741  0.2448163297961481
  0.1203153116186000  0.8865574591759738  0.7448163297961480
  0.4953153116185999  0.5115574591759737  0.3698163297961481
  0.6203153116186000  0.0115574591759738  0.7448163297961480
  0.4953153116186000  0.8865574591759738  0.9948163297961481