POSCAR_6x6x6_CsPbI3
 1.0000000000000000
    37.5423731310202484   -0.2754808380117006   -0.1460648605931394
     0.0810019547171286   37.7036140956611163    0.0542174084962866
     0.1700701795639518   -0.2960023002246372   37.5405104212691967
  Cs   I  Pb
 216 648 216
Direct
  0.1604204154914667  0.0154099455679650  0.1597551063948641
  0.4937537488248000  0.3487432789012984  0.3264217730615308
  0.8270870821581334  0.8487432789012982  0.8264217730615308
  0.3270870821581333  0.0154099455679650  0.4930884397281974
  0.6604204154914667  0.5154099455679650  0.9930884397281976
  0.8270870821581334  0.8487432789012983  0.6597551063948641
  0.4937537488248000  0.3487432789012984  0.1597551063948641
  0.3270870821581333  0.0154099455679650  0.6597551063948641
  0.8270870821581334  0.8487432789012983  0.4930884397281975
  0.6604204154914666  0.6820766122346316  0.1597551063948641
  0.3270870821581333  0.0154099455679650  0.8264217730615308
  0.8270870821581334  0.8487432789012983  0.3264217730615308
  0.4937537488247999  0.1820766122346317  0.9930884397281976
  0.3270870821581333  0.0154099455679650  0.9930884397281976
  0.8270870821581334  0.8487432789012983  0.1597551063948641
  0.6604204154914666  0.6820766122346317  0.3264217730615308
  0.3270870821581333  0.1820766122346317  0.1597551063948641
  0.4937537488248000  0.1820766122346317  0.8264217730615309
  0.8270870821581333  0.6820766122346317  0.9930884397281974
  0.3270870821581333  0.1820766122346317  0.3264217730615308
  0.6604204154914666  0.6820766122346316  0.4930884397281975
  0.8270870821581333  0.6820766122346316  0.8264217730615308
  0.4937537488248000  0.1820766122346317  0.6597551063948641
  0.3270870821581333  0.1820766122346317  0.4930884397281974
  0.8270870821581333  0.6820766122346317  0.6597551063948641
  0.6604204154914666  0.6820766122346317  0.6597551063948641
  0.3270870821581333  0.1820766122346317  0.6597551063948641
  0.8270870821581333  0.6820766122346316  0.4930884397281975
  0.4937537488248000  0.1820766122346317  0.4930884397281975
  0.3270870821581333  0.1820766122346317  0.8264217730615308
  0.3270870821581333  0.0154099455679650  0.3264217730615308
  0.8270870821581333  0.6820766122346317  0.3264217730615308
  0.6604204154914667  0.5154099455679650  0.8264217730615309
  0.3270870821581333  0.0154099455679650  0.1597551063948641
  0.1604204154914667  0.6820766122346317  0.6597551063948641
  0.4937537488247999  0.5154099455679650  0.3264217730615308
  0.9937537488248002  0.1820766122346317  0.4930884397281975
  0.1604204154914667  0.6820766122346316  0.8264217730615308
  0.6604204154914667  0.3487432789012984  0.9930884397281976
  0.9937537488248002  0.1820766122346317  0.3264217730615308
  0.4937537488248000  0.5154099455679650  0.1597551063948641
  0.1604204154914667  0.6820766122346317  0.9930884397281974
  0.9937537488248002  0.1820766122346317  0.1597551063948641
  0.6604204154914667  0.5154099455679650  0.1597551063948641
  0.1604204154914666  0.8487432789012983  0.1597551063948641
  0.9937537488248002  0.0154099455679650  0.9930884397281976
  0.4937537488248000  0.3487432789012984  0.9930884397281976
  0.1604204154914666  0.8487432789012983  0.3264217730615308
  0.9937537488247999  0.0154099455679650  0.8264217730615308
  0.6604204154914667  0.5154099455679650  0.3264217730615308
  0.1604204154914666  0.8487432789012983  0.4930884397281975
  0.4937537488248001  0.3487432789012984  0.8264217730615309
  0.9937537488247998  0.0154099455679650  0.6597551063948641
  0.1604204154914666  0.8487432789012983  0.6597551063948641
  0.6604204154914667  0.5154099455679650  0.4930884397281975
  0.8270870821581334  0.0154099455679650  0.8264217730615308
  0.4937537488248000  0.3487432789012984  0.6597551063948641
  0.1604204154914666  0.8487432789012982  0.8264217730615306
  0.9937537488247999  0.0154099455679650  0.3264217730615308
  0.6604204154914667  0.5154099455679650  0.6597551063948641
  0.1604204154914666  0.8487432789012983  0.9930884397281974
  0.9937537488248002  0.0154099455679650  0.1597551063948641
  0.4937537488248001  0.3487432789012983  0.4930884397281975
  0.8270870821581334  0.8487432789012982  0.9930884397281974
  0.6604204154914667  0.3487432789012984  0.8264217730615309
  0.6604204154914666  0.6820766122346316  0.8264217730615309
  0.4937537488248000  0.1820766122346317  0.3264217730615308
  0.4937537488248000  0.0154099455679650  0.3264217730615308
  0.3270870821581333  0.5154099455679650  0.8264217730615308
  0.8270870821581334  0.3487432789012984  0.3264217730615308
  0.6604204154914667  0.8487432789012982  0.9930884397281976
  0.3270870821581333  0.5154099455679650  0.9930884397281976
  0.4937537488248001  0.0154099455679650  0.1597551063948641
  0.8270870821581334  0.3487432789012984  0.1597551063948641
  0.3270870821581333  0.6820766122346317  0.1597551063948641
  0.8270870821581334  0.0154099455679650  0.1597551063948641
  0.8270870821581334  0.1820766122346317  0.9930884397281974
  0.3270870821581333  0.8487432789012983  0.9930884397281974
  0.3270870821581334  0.6820766122346317  0.3264217730615308
  0.8270870821581334  0.1820766122346317  0.8264217730615308
  0.8270870821581334  0.0154099455679650  0.3264217730615308
  0.3270870821581333  0.6820766122346317  0.4930884397281974
  0.8270870821581334  0.1820766122346317  0.6597551063948641
  0.3270870821581333  0.8487432789012982  0.8264217730615308
  0.3270870821581333  0.6820766122346317  0.6597551063948641
  0.8270870821581334  0.1820766122346317  0.4930884397281975
  0.8270870821581334  0.0154099455679650  0.4930884397281975
  0.3270870821581333  0.6820766122346317  0.8264217730615308
  0.3270870821581334  0.8487432789012983  0.6597551063948641
  0.8270870821581334  0.1820766122346317  0.3264217730615308
  0.3270870821581334  0.6820766122346317  0.9930884397281974
  0.8270870821581334  0.0154099455679650  0.6597551063948641
  0.8270870821581334  0.1820766122346317  0.1597551063948641
  0.3270870821581333  0.8487432789012983  0.4930884397281975
  0.3270870821581333  0.8487432789012983  0.1597551063948641
  0.8270870821581334  0.0154099455679650  0.9930884397281974
  0.8270870821581334  0.3487432789012983  0.4930884397281975
  0.3270870821581333  0.1820766122346317  0.9930884397281976
  0.3270870821581334  0.5154099455679650  0.6597551063948641
  0.8270870821581334  0.3487432789012984  0.6597551063948641
  0.8270870821581333  0.6820766122346316  0.1597551063948641
  0.3270870821581333  0.3487432789012984  0.1597551063948641
  0.6604204154914666  0.6820766122346317  0.9930884397281976
  0.8270870821581334  0.5154099455679650  0.9930884397281974
  0.4937537488248000  0.1820766122346317  0.1597551063948641
  0.3270870821581334  0.3487432789012984  0.3264217730615308
  0.8270870821581334  0.5154099455679650  0.8264217730615308
  0.6604204154914667  0.8487432789012983  0.1597551063948641
  0.3270870821581333  0.3487432789012984  0.4930884397281974
  0.8270870821581334  0.5154099455679650  0.6597551063948641
  0.4937537488248000  0.0154099455679650  0.9930884397281976
  0.3270870821581333  0.3487432789012984  0.6597551063948641
  0.8270870821581334  0.5154099455679650  0.4930884397281975
  0.6604204154914667  0.8487432789012983  0.3264217730615308
  0.3270870821581333  0.3487432789012984  0.8264217730615308
  0.4937537488248000  0.0154099455679650  0.8264217730615309
  0.8270870821581334  0.5154099455679650  0.3264217730615308
  0.3270870821581334  0.3487432789012984  0.9930884397281976
  0.6604204154914667  0.8487432789012983  0.4930884397281975
  0.8270870821581334  0.5154099455679650  0.1597551063948641
  0.6604204154914667  0.0154099455679650  0.1597551063948641
  0.3270870821581333  0.5154099455679650  0.1597551063948641
  0.4937537488248001  0.0154099455679650  0.6597551063948641
  0.8270870821581334  0.3487432789012984  0.9930884397281974
  0.3270870821581333  0.5154099455679650  0.3264217730615308
  0.6604204154914667  0.8487432789012983  0.6597551063948641
  0.8270870821581334  0.3487432789012984  0.8264217730615308
  0.4937537488248001  0.0154099455679650  0.4930884397281975
  0.3270870821581333  0.5154099455679650  0.4930884397281974
  0.6604204154914667  0.8487432789012982  0.8264217730615309
  0.9937537488248002  0.1820766122346317  0.6597551063948641
  0.9937537488247999  0.0154099455679650  0.4930884397281975
  0.1604204154914667  0.6820766122346316  0.4930884397281975
  0.6604204154914667  0.1820766122346317  0.1597551063948641
  0.1604204154914666  0.1820766122346317  0.8264217730615308
  0.9937537488247999  0.6820766122346317  0.3264217730615308
  0.4937537488248000  0.6820766122346317  0.9930884397281976
  0.1604204154914666  0.1820766122346317  0.9930884397281974
  0.9937537488247999  0.6820766122346317  0.1597551063948641
  0.6604204154914667  0.1820766122346317  0.3264217730615308
  0.1604204154914667  0.3487432789012984  0.1597551063948641
  0.4937537488248000  0.6820766122346317  0.8264217730615309
  0.9937537488248002  0.5154099455679650  0.9930884397281976
  0.6604204154914667  0.1820766122346317  0.4930884397281975
  0.9937537488248002  0.5154099455679650  0.8264217730615308
  0.9937537488247999  0.6820766122346317  0.4930884397281974
  0.4937537488248000  0.6820766122346317  0.6597551063948641
  0.9937537488247999  0.5154099455679650  0.6597551063948641
  0.6604204154914667  0.1820766122346317  0.6597551063948641
  0.1604204154914666  0.3487432789012984  0.6597551063948641
  0.9937537488247999  0.5154099455679650  0.4930884397281974
  0.4937537488248001  0.6820766122346317  0.4930884397281975
  0.1604204154914666  0.3487432789012984  0.8264217730615308
  0.9937537488247999  0.5154099455679650  0.3264217730615308
  0.6604204154914667  0.1820766122346317  0.8264217730615309
  0.1604204154914666  0.3487432789012984  0.9930884397281974
  0.4937537488247999  0.6820766122346317  0.3264217730615308
  0.9937537488248002  0.5154099455679650  0.1597551063948641
  0.1604204154914667  0.5154099455679650  0.1597551063948641
  0.1604204154914666  0.3487432789012983  0.4930884397281975
  0.6604204154914667  0.1820766122346317  0.9930884397281976
  0.1604204154914666  0.1820766122346317  0.6597551063948641
  0.9937537488247999  0.6820766122346317  0.6597551063948641
  0.9937537488248002  0.8487432789012983  0.9930884397281974
  0.4937537488248000  0.8487432789012983  0.9930884397281976
  0.1604204154914667  0.0154099455679650  0.3264217730615308
  0.9937537488247999  0.8487432789012982  0.8264217730615308
  0.6604204154914667  0.0154099455679650  0.3264217730615308
  0.1604204154914667  0.0154099455679650  0.4930884397281975
  0.4937537488248000  0.8487432789012982  0.8264217730615309
  0.9937537488247998  0.8487432789012983  0.6597551063948641
  0.1604204154914667  0.0154099455679650  0.6597551063948641
  0.6604204154914667  0.0154099455679650  0.4930884397281975
  0.9937537488247999  0.8487432789012983  0.4930884397281974
  0.4937537488248001  0.8487432789012983  0.6597551063948641
  0.4937537488248001  0.8487432789012983  0.1597551063948641
  0.1604204154914667  0.0154099455679650  0.8264217730615308
  0.6604204154914667  0.0154099455679650  0.6597551063948640
  0.1604204154914667  0.0154099455679650  0.9930884397281974
  0.9937537488248002  0.8487432789012983  0.1597551063948641
  0.4937537488248001  0.8487432789012983  0.4930884397281975
  0.1604204154914666  0.1820766122346317  0.1597551063948641
  0.9937537488247999  0.6820766122346317  0.9930884397281976
  0.6604204154914667  0.0154099455679650  0.8264217730615306
  0.1604204154914666  0.1820766122346317  0.3264217730615308
  0.4937537488248000  0.8487432789012983  0.3264217730615308
  0.9937537488247999  0.6820766122346317  0.8264217730615308
  0.1604204154914666  0.1820766122346317  0.4930884397281975
  0.6604204154914667  0.0154099455679650  0.9930884397281974
  0.9937537488247999  0.8487432789012983  0.3264217730615308
  0.9937537488248002  0.3487432789012984  0.9930884397281976
  0.1604204154914666  0.3487432789012984  0.3264217730615308
  0.3270870821581333  0.8487432789012983  0.3264217730615308
  0.1604204154914667  0.5154099455679650  0.4930884397281975
  0.6604204154914667  0.3487432789012984  0.6597551063948641
  0.9937537488247999  0.3487432789012984  0.6597551063948641
  0.9937537488248002  0.1820766122346317  0.9930884397281976
  0.1604204154914667  0.6820766122346316  0.1597551063948641
  0.1604204154914667  0.5154099455679650  0.6597551063948641
  0.4937537488248000  0.5154099455679650  0.6597551063948641
  0.9937537488248002  0.3487432789012984  0.4930884397281974
  0.9937537488248002  0.3487432789012984  0.1597551063948641
  0.6604204154914667  0.3487432789012984  0.3264217730615308
  0.6604204154914667  0.3487432789012984  0.4930884397281975
  0.1604204154914667  0.5154099455679650  0.9930884397281974
  0.1604204154914667  0.5154099455679650  0.8264217730615308
  0.4937537488248000  0.5154099455679650  0.8264217730615309
  0.9937537488248002  0.3487432789012984  0.3264217730615308
  0.6604204154914667  0.3487432789012984  0.1597551063948641
  0.1604204154914667  0.6820766122346317  0.3264217730615308
  0.4937537488248000  0.5154099455679650  0.9930884397281976
  0.4937537488248001  0.5154099455679650  0.4930884397281975
  0.1604204154914667  0.5154099455679650  0.3264217730615308
  0.9937537488247999  0.3487432789012984  0.8264217730615308
  0.9937537488248002  0.1820766122346317  0.8264217730615308
  0.4937537488248000  0.6820766122346317  0.1597551063948641
  0.6617321751547622  0.9174004190357132  0.7446271311576866
  0.5781939073896575  0.4176014036202698  0.4948742874828247
  0.5790701289971788  0.8374547927777163  0.7457339335352932
  0.5790701289971788  0.0041214594443831  0.5790672668686264
  0.5781939073896576  0.5842680702869364  0.1615409541494914
  0.5781939073896576  0.9176014036202698  0.8282076208161581
  0.6617321751547620  0.0840670857023801  0.5779604644910200
  0.7448605740563242  0.0842680702869365  0.6615409541494914
  0.6617321751547620  0.9174004190357135  0.5779604644910200
  0.5781939073896575  0.4176014036202698  0.8282076208161581
  0.5790701289971788  0.3374547927777164  0.7457339335352932
  0.5790701289971788  0.0041214594443831  0.0790672668686265
  0.5790701289971788  0.5041214594443830  0.0790672668686265
  0.5781939073896576  0.9176014036202697  0.6615409541494914
  0.5790701289971788  0.3374547927777164  0.5790672668686265
  0.6617321751547622  0.5840670857023800  0.0779604644910200
  0.7457367956638455  0.0041214594443831  0.5790672668686265
  0.5790701289971788  0.0041214594443831  0.7457339335352930
  0.6617321751547621  0.9174004190357132  0.4112937978243534
  0.5790701289971788  0.8374547927777163  0.4124006002019598
  0.5781939073896575  0.0842680702869365  0.1615409541494914
  0.8283988418214288  0.0840670857023801  0.5779604644910200
  0.6617321751547622  0.0840670857023801  0.7446271311576866
  0.5790701289971788  0.8374547927777163  0.5790672668686265
  0.5781939073896575  0.0842680702869365  0.8282076208161580
  0.5781939073896575  0.0842680702869365  0.6615409541494913
  0.5781939073896576  0.9176014036202698  0.9948742874828246
  0.6617321751547621  0.4174004190357134  0.7446271311576866
  0.8283988418214289  0.0840670857023801  0.2446271311576867
  0.5781939073896576  0.0842680702869365  0.3282076208161580
  0.5781939073896575  0.4176014036202699  0.6615409541494914
  0.7457367956638457  0.0041214594443831  0.2457339335352932
  0.5790701289971789  0.0041214594443831  0.2457339335352932
  0.6617321751547622  0.0840670857023801  0.2446271311576867
  0.7448605740563243  0.0842680702869365  0.3282076208161580
  0.6617321751547620  0.4174004190357133  0.4112937978243533
  0.8283988418214288  0.0840670857023800  0.0779604644910200
  0.5781939073896576  0.4176014036202698  0.9948742874828248
  0.7457367956638455  0.0041214594443831  0.0790672668686265
  0.5781939073896575  0.0842680702869365  0.4948742874828247
  0.7457367956638455  0.0041214594443831  0.4124006002019598
  0.8283988418214288  0.0840670857023801  0.4112937978243534
  0.7448605740563242  0.0842680702869365  0.1615409541494914
  0.6617321751547621  0.4174004190357134  0.2446271311576867
  0.5790701289971788  0.3374547927777164  0.4124006002019598
  0.5790701289971788  0.0041214594443831  0.4124006002019598
  0.5790701289971789  0.3374547927777164  0.9124006002019598
  0.6617321751547621  0.9174004190357131  0.9112937978243534
  0.5790701289971789  0.8374547927777163  0.9124006002019598
  0.6617321751547621  0.0840670857023801  0.4112937978243534
  0.6617321751547621  0.0840670857023800  0.0779604644910200
  0.6617321751547622  0.4174004190357134  0.9112937978243534
  0.7448605740563242  0.0842680702869365  0.4948742874828247
  0.5790701289971789  0.3374547927777164  0.2457339335352931
  0.6617321751547621  0.5840670857023800  0.7446271311576866
  0.5781939073896576  0.9176014036202698  0.4948742874828248
  0.5781939073896575  0.7509347369536031  0.6615409541494914
  0.5781939073896576  0.5842680702869365  0.6615409541494914
  0.5790701289971788  0.1707881261110497  0.4124006002019598
  0.6617321751547620  0.7507337523690467  0.4112937978243533
  0.5781939073896575  0.4176014036202698  0.1615409541494914
  0.5790701289971788  0.6707881261110497  0.4124006002019598
  0.6617321751547621  0.2507337523690467  0.4112937978243533
  0.5781939073896575  0.7509347369536031  0.4948742874828247
  0.5790701289971788  0.5041214594443831  0.5790672668686265
  0.5781939073896576  0.2509347369536032  0.6615409541494914
  0.6617321751547621  0.7507337523690466  0.2446271311576867
  0.5790701289971789  0.6707881261110498  0.2457339335352932
  0.6617321751547621  0.5840670857023801  0.5779604644910200
  0.5790701289971788  0.1707881261110497  0.5790672668686265
  0.6617321751547621  0.2507337523690467  0.9112937978243534
  0.5781939073896576  0.7509347369536031  0.3282076208161580
  0.6617321751547620  0.2507337523690467  0.5779604644910201
  0.6617321751547620  0.7507337523690466  0.0779604644910200
  0.5781939073896576  0.5842680702869364  0.8282076208161581
  0.5790701289971788  0.6707881261110497  0.0790672668686265
  0.5781939073896576  0.2509347369536031  0.8282076208161581
  0.5790701289971789  0.1707881261110497  0.9124006002019598
  0.5781939073896575  0.7509347369536031  0.1615409541494914
  0.6617321751547622  0.5840670857023800  0.9112937978243534
  0.5790701289971788  0.1707881261110497  0.7457339335352932
  0.5790701289971789  0.5041214594443830  0.9124006002019598
  0.6617321751547622  0.2507337523690467  0.7446271311576868
  0.5790701289971788  0.5041214594443831  0.7457339335352932
  0.5781939073896577  0.5842680702869365  0.9948742874828246
  0.5781939073896576  0.2509347369536032  0.4948742874828247
  0.5781939073896577  0.5842680702869365  0.3282076208161580
  0.5790701289971788  0.6707881261110498  0.5790672668686265
  0.6617321751547620  0.5840670857023800  0.4112937978243533
  0.5781939073896576  0.0842680702869365  0.9948742874828246
  0.6617321751547622  0.9174004190357132  0.2446271311576867
  0.5781939073896577  0.2509347369536031  0.9948742874828246
  0.5790701289971789  0.0041214594443831  0.9124006002019600
  0.6617321751547621  0.0840670857023800  0.9112937978243534
  0.5781939073896576  0.9176014036202700  0.3282076208161580
  0.5790701289971789  0.5041214594443831  0.2457339335352932
  0.6617321751547621  0.5840670857023800  0.2446271311576867
  0.6617321751547621  0.9174004190357132  0.0779604644910200
  0.5781939073896576  0.2509347369536031  0.1615409541494914
  0.5790701289971788  0.8374547927777163  0.0790672668686265
  0.5781939073896576  0.4176014036202698  0.3282076208161580
  0.5781939073896576  0.9176014036202698  0.1615409541494914
  0.5790701289971788  0.1707881261110497  0.0790672668686265
  0.6617321751547620  0.7507337523690466  0.9112937978243534
  0.6617321751547621  0.2507337523690467  0.0779604644910200
  0.5790701289971789  0.6707881261110497  0.9124006002019598
  0.5781939073896576  0.5842680702869364  0.4948742874828247
  0.6617321751547622  0.4174004190357134  0.0779604644910200
  0.5781939073896576  0.7509347369536031  0.9948742874828248
  0.5781939073896577  0.2509347369536031  0.3282076208161580
  0.5790701289971788  0.5041214594443830  0.4124006002019598
  0.6617321751547621  0.7507337523690466  0.7446271311576866
  0.5790701289971788  0.6707881261110497  0.7457339335352932
  0.5790701289971788  0.3374547927777164  0.0790672668686265
  0.5790701289971789  0.1707881261110497  0.2457339335352932
  0.6617321751547622  0.2507337523690467  0.2446271311576867
  0.5781939073896575  0.7509347369536031  0.8282076208161581
  0.6617321751547621  0.4174004190357134  0.5779604644910201
  0.6617321751547619  0.7507337523690467  0.5779604644910200
  0.5790701289971789  0.8374547927777163  0.2457339335352932
  0.7457367956638457  0.3374547927777163  0.9124006002019600
  0.7457367956638455  0.0041214594443831  0.7457339335352932
  0.9124034623305123  0.1707881261110497  0.9124006002019598
  0.9950655084880954  0.2507337523690467  0.9112937978243534
  0.9115272407229910  0.4176014036202698  0.1615409541494914
  0.9124034623305122  0.3374547927777164  0.0790672668686265
  0.9950655084880954  0.4174004190357134  0.0779604644910200
  0.9115272407229909  0.4176014036202698  0.3282076208161580
  0.9124034623305122  0.3374547927777164  0.2457339335352932
  0.9950655084880954  0.4174004190357134  0.2446271311576867
  0.9115272407229909  0.4176014036202698  0.4948742874828247
  0.9124034623305122  0.3374547927777164  0.4124006002019598
  0.9950655084880954  0.4174004190357133  0.4112937978243533
  0.9115272407229910  0.4176014036202699  0.6615409541494914
  0.9124034623305122  0.3374547927777164  0.5790672668686265
  0.9950655084880954  0.4174004190357134  0.5779604644910201
  0.9115272407229910  0.4176014036202698  0.8282076208161581
  0.9124034623305122  0.3374547927777164  0.7457339335352932
  0.9950655084880954  0.4174004190357134  0.7446271311576868
  0.9115272407229910  0.4176014036202698  0.9948742874828248
  0.9124034623305122  0.3374547927777164  0.9124006002019600
  0.9950655084880954  0.4174004190357134  0.9112937978243536
  0.9115272407229910  0.5842680702869364  0.1615409541494913
  0.9115272407229912  0.2509347369536031  0.9948742874828248
  0.9124034623305123  0.5041214594443831  0.0790672668686265
  0.9950655084880956  0.2507337523690467  0.7446271311576866
  0.9115272407229910  0.2509347369536031  0.8282076208161580
  0.9115272407229912  0.0842680702869365  0.6615409541494913
  0.9124034623305123  0.0041214594443831  0.5790672668686264
  0.9950655084880954  0.0840670857023801  0.5779604644910200
  0.9115272407229910  0.0842680702869365  0.8282076208161580
  0.9124034623305122  0.0041214594443831  0.7457339335352930
  0.9950655084880956  0.0840670857023801  0.7446271311576866
  0.9115272407229910  0.0842680702869365  0.9948742874828246
  0.9124034623305123  0.0041214594443831  0.9124006002019598
  0.9950655084880954  0.0840670857023801  0.9112937978243534
  0.9115272407229912  0.2509347369536031  0.1615409541494914
  0.9124034623305123  0.1707881261110497  0.0790672668686265
  0.9950655084880954  0.2507337523690467  0.0779604644910200
  0.9115272407229910  0.2509347369536031  0.3282076208161580
  0.9124034623305122  0.1707881261110497  0.2457339335352932
  0.9950655084880956  0.2507337523690467  0.2446271311576867
  0.9115272407229910  0.2509347369536032  0.4948742874828247
  0.9124034623305122  0.1707881261110497  0.4124006002019598
  0.9950655084880956  0.2507337523690468  0.4112937978243534
  0.9115272407229910  0.2509347369536032  0.6615409541494913
  0.9124034623305123  0.1707881261110497  0.5790672668686264
  0.9950655084880954  0.2507337523690467  0.5779604644910200
  0.9124034623305122  0.1707881261110497  0.7457339335352930
  0.9950655084880954  0.5840670857023800  0.0779604644910200
  0.9115272407229910  0.5842680702869365  0.3282076208161580
  0.9124034623305123  0.5041214594443831  0.2457339335352931
  0.9124034623305122  0.6707881261110498  0.7457339335352932
  0.9950655084880956  0.7507337523690466  0.7446271311576866
  0.9115272407229912  0.7509347369536032  0.9948742874828248
  0.9124034623305123  0.6707881261110497  0.9124006002019600
  0.9950655084880954  0.7507337523690467  0.9112937978243536
  0.9115272407229910  0.9176014036202698  0.1615409541494914
  0.9124034623305123  0.8374547927777163  0.0790672668686265
  0.9950655084880954  0.9174004190357132  0.0779604644910200
  0.9115272407229910  0.9176014036202700  0.3282076208161580
  0.9124034623305122  0.8374547927777164  0.2457339335352932
  0.9950655084880956  0.9174004190357135  0.2446271311576867
  0.9115272407229910  0.9176014036202698  0.4948742874828247
  0.9124034623305122  0.8374547927777163  0.4124006002019598
  0.9950655084880956  0.9174004190357132  0.4112937978243533
  0.9115272407229912  0.9176014036202698  0.6615409541494914
  0.9124034623305123  0.8374547927777164  0.5790672668686265
  0.9950655084880954  0.9174004190357135  0.5779604644910200
  0.9115272407229910  0.9176014036202698  0.8282076208161581
  0.9124034623305122  0.8374547927777163  0.7457339335352932
  0.9950655084880956  0.9174004190357132  0.7446271311576866
  0.9115272407229910  0.9176014036202698  0.9948742874828248
  0.9115272407229910  0.7509347369536031  0.8282076208161581
  0.9950655084880954  0.7507337523690468  0.5779604644910200
  0.9124034623305123  0.6707881261110498  0.5790672668686265
  0.9115272407229910  0.7509347369536032  0.6615409541494914
  0.9950655084880954  0.5840670857023800  0.2446271311576867
  0.9115272407229910  0.5842680702869365  0.4948742874828247
  0.9124034623305123  0.5041214594443831  0.4124006002019598
  0.9950655084880954  0.5840670857023801  0.4112937978243533
  0.9115272407229910  0.5842680702869365  0.6615409541494914
  0.9124034623305123  0.5041214594443831  0.5790672668686265
  0.9950655084880954  0.5840670857023801  0.5779604644910201
  0.9115272407229909  0.5842680702869365  0.8282076208161581
  0.9124034623305123  0.5041214594443831  0.7457339335352932
  0.9950655084880954  0.5840670857023800  0.7446271311576866
  0.9950655084880956  0.0840670857023800  0.4112937978243534
  0.9115272407229910  0.5842680702869365  0.9948742874828248
  0.9950655084880954  0.5840670857023800  0.9112937978243536
  0.9115272407229912  0.7509347369536031  0.1615409541494914
  0.9124034623305123  0.6707881261110498  0.0790672668686265
  0.9950655084880954  0.7507337523690466  0.0779604644910200
  0.9115272407229910  0.7509347369536032  0.3282076208161580
  0.9124034623305122  0.6707881261110498  0.2457339335352932
  0.9950655084880956  0.7507337523690467  0.2446271311576867
  0.9115272407229910  0.7509347369536031  0.4948742874828247
  0.9124034623305122  0.6707881261110498  0.4124006002019598
  0.9950655084880956  0.7507337523690467  0.4112937978243533
  0.9124034623305123  0.5041214594443830  0.9124006002019600
  0.9124034623305122  0.0041214594443831  0.4124006002019598
  0.9115272407229910  0.0842680702869365  0.4948742874828247
  0.9950655084880956  0.0840670857023801  0.2446271311576867
  0.7457367956638457  0.3374547927777163  0.2457339335352931
  0.8283988418214288  0.4174004190357133  0.2446271311576867
  0.7448605740563242  0.4176014036202698  0.4948742874828246
  0.7457367956638455  0.3374547927777163  0.4124006002019598
  0.8283988418214288  0.4174004190357133  0.4112937978243534
  0.7448605740563242  0.4176014036202698  0.6615409541494913
  0.7457367956638455  0.3374547927777163  0.5790672668686265
  0.8283988418214288  0.4174004190357133  0.5779604644910200
  0.7448605740563242  0.4176014036202698  0.8282076208161580
  0.7457367956638455  0.3374547927777163  0.7457339335352930
  0.8283988418214288  0.4174004190357133  0.7446271311576866
  0.7448605740563243  0.4176014036202698  0.9948742874828248
  0.8283988418214289  0.4174004190357134  0.9112937978243534
  0.7448605740563243  0.5842680702869364  0.1615409541494913
  0.7457367956638455  0.5041214594443831  0.0790672668686265
  0.8283988418214289  0.5840670857023800  0.0779604644910200
  0.7448605740563244  0.5842680702869365  0.3282076208161580
  0.7457367956638457  0.5041214594443831  0.2457339335352931
  0.8283988418214288  0.5840670857023801  0.2446271311576867
  0.7448605740563243  0.5842680702869364  0.4948742874828246
  0.7457367956638455  0.5041214594443831  0.4124006002019598
  0.7448605740563243  0.4176014036202698  0.3282076208161580
  0.8283988418214289  0.4174004190357133  0.0779604644910200
  0.7457367956638455  0.3374547927777163  0.0790672668686265
  0.7448605740563242  0.4176014036202698  0.1615409541494914
  0.8283988418214289  0.0840670857023801  0.7446271311576866
  0.7448605740563243  0.0842680702869365  0.9948742874828248
  0.7457367956638457  0.0041214594443831  0.9124006002019600
  0.8283988418214288  0.0840670857023801  0.9112937978243536
  0.7448605740563243  0.2509347369536031  0.1615409541494914
  0.7457367956638455  0.1707881261110497  0.0790672668686265
  0.8283988418214288  0.2507337523690467  0.0779604644910200
  0.7448605740563244  0.2509347369536031  0.3282076208161580
  0.7457367956638457  0.1707881261110497  0.2457339335352932
  0.8283988418214289  0.2507337523690467  0.2446271311576867
  0.8283988418214288  0.5840670857023800  0.4112937978243534
  0.7448605740563243  0.2509347369536031  0.4948742874828247
  0.8283988418214288  0.2507337523690467  0.4112937978243534
  0.7448605740563243  0.2509347369536031  0.6615409541494913
  0.7457367956638455  0.1707881261110497  0.5790672668686265
  0.8283988418214288  0.2507337523690467  0.5779604644910200
  0.7448605740563243  0.2509347369536031  0.8282076208161580
  0.7457367956638455  0.1707881261110497  0.7457339335352932
  0.8283988418214289  0.2507337523690467  0.7446271311576866
  0.7448605740563244  0.2509347369536031  0.9948742874828248
  0.7457367956638457  0.1707881261110497  0.9124006002019600
  0.8283988418214288  0.2507337523690467  0.9112937978243534
  0.7457367956638455  0.1707881261110497  0.4124006002019598