POSCAR_4x4x4_CsPbI3
 1.0000000000000000
    25.0282487540135001   -0.1836538920078004   -0.0973765737287596
     0.0540013031447524   25.1357427304407430    0.0361449389975244
     0.1133801197093012   -0.1973348668164248   25.0270069475127990
  Cs   I  Pb
  64 192  64
Direct
  0.2406306232372000  0.0231149183519476  0.2396326595922962
  0.7406306232372000  0.5231149183519477  0.2396326595922962
  0.2406306232372000  0.7731149183519476  0.4896326595922962
  0.9906306232372000  0.0231149183519476  0.9896326595922960
  0.4906306232372000  0.5231149183519477  0.2396326595922962
  0.2406306232372000  0.7731149183519476  0.2396326595922962
  0.7406306232372000  0.2731149183519476  0.9896326595922963
  0.9906306232372000  0.2731149183519476  0.2396326595922962
  0.9906306232372000  0.0231149183519476  0.7396326595922963
  0.2406306232371999  0.5231149183519477  0.9896326595922961
  0.9906306232372000  0.2731149183519476  0.4896326595922962
  0.2406306232371999  0.5231149183519476  0.7396326595922962
  0.7406306232372000  0.7731149183519476  0.2396326595922962
  0.9906306232372000  0.2731149183519476  0.7396326595922962
  0.2406306232371999  0.5231149183519477  0.4896326595922962
  0.4906306232372000  0.5231149183519477  0.7396326595922961
  0.9906306232372000  0.2731149183519476  0.9896326595922963
  0.4906306232372001  0.5231149183519477  0.4896326595922962
  0.7406306232372000  0.2731149183519476  0.4896326595922961
  0.4906306232372000  0.2731149183519476  0.9896326595922961
  0.9906306232372000  0.0231149183519476  0.4896326595922962
  0.4906306232371999  0.2731149183519476  0.2396326595922962
  0.4906306232372000  0.0231149183519476  0.9896326595922961
  0.7406306232372000  0.5231149183519477  0.9896326595922963
  0.7406306232371999  0.7731149183519478  0.4896326595922962
  0.4906306232371999  0.0231149183519476  0.7396326595922961
  0.4906306232372000  0.2731149183519476  0.4896326595922962
  0.7406306232372001  0.7731149183519476  0.7396326595922962
  0.2406306232372000  0.7731149183519476  0.7396326595922962
  0.4906306232372000  0.0231149183519476  0.4896326595922962
  0.7406306232372000  0.7731149183519478  0.9896326595922963
  0.4906306232372000  0.0231149183519476  0.2396326595922962
  0.7406306232372001  0.0231149183519476  0.2396326595922962
  0.4906306232372000  0.2731149183519476  0.7396326595922961
  0.9906306232372000  0.0231149183519476  0.2396326595922962
  0.2406306232372000  0.7731149183519476  0.9896326595922961
  0.7406306232372000  0.5231149183519477  0.4896326595922961
  0.7406306232372001  0.5231149183519476  0.7396326595922962
  0.2406306232372000  0.5231149183519477  0.2396326595922962
  0.7406306232372000  0.2731149183519476  0.7396326595922962
  0.4906306232372000  0.7731149183519478  0.4896326595922962
  0.9906306232372000  0.7731149183519476  0.2396326595922962
  0.9906306232372000  0.7731149183519476  0.4896326595922962
  0.4906306232372000  0.7731149183519476  0.7396326595922961
  0.2406306232371999  0.2731149183519476  0.2396326595922962
  0.2406306232372000  0.0231149183519476  0.7396326595922962
  0.9906306232372000  0.5231149183519477  0.9896326595922963
  0.7406306232372000  0.0231149183519476  0.4896326595922961
  0.7406306232372001  0.0231149183519476  0.9896326595922963
  0.2406306232371999  0.2731149183519476  0.4896326595922961
  0.9906306232372000  0.7731149183519476  0.7396326595922962
  0.7406306232372001  0.0231149183519476  0.7396326595922962
  0.4906306232372000  0.7731149183519476  0.2396326595922962
  0.9906306232372000  0.5231149183519477  0.7396326595922962
  0.2406306232372000  0.0231149183519476  0.9896326595922961
  0.2406306232371999  0.2731149183519476  0.7396326595922962
  0.9906306232372000  0.5231149183519477  0.2396326595922962
  0.4906306232372000  0.5231149183519477  0.9896326595922961
  0.9906306232372000  0.5231149183519477  0.4896326595922962
  0.4906306232372001  0.7731149183519478  0.9896326595922961
  0.7406306232372000  0.2731149183519476  0.2396326595922962
  0.2406306232372000  0.0231149183519476  0.4896326595922961
  0.9906306232372000  0.7731149183519476  0.9896326595922963
  0.2406306232371999  0.2731149183519476  0.9896326595922961
  0.7425982627321432  0.1261006285535701  0.3669406967365301
  0.6186051934957681  0.0061821891665746  0.3686009003029397
  0.6172908610844864  0.1264021054304048  0.2423114312242370
  0.6186051934957681  0.5061821891665746  0.3686009003029397
  0.6186051934957681  0.5061821891665746  0.6186009003029397
  0.6172908610844863  0.1264021054304048  0.4923114312242370
  0.6172908610844863  0.6264021054304048  0.7423114312242370
  0.6186051934957683  0.0061821891665746  0.1186009003029397
  0.7425982627321432  0.6261006285535701  0.6169406967365301
  0.7425982627321432  0.1261006285535701  0.1169406967365301
  0.6172908610844863  0.6264021054304048  0.9923114312242369
  0.7425982627321431  0.6261006285535701  0.3669406967365300
  0.6186051934957683  0.2561821891665746  0.1186009003029397
  0.7425982627321432  0.6261006285535701  0.1169406967365301
  0.6172908610844863  0.3764021054304048  0.4923114312242370
  0.6172908610844864  0.3764021054304048  0.2423114312242370
  0.6186051934957681  0.2561821891665746  0.3686009003029397
  0.7425982627321431  0.3761006285535701  0.3669406967365301
  0.7425982627321431  0.1261006285535701  0.8669406967365300
  0.6172908610844864  0.3764021054304048  0.7423114312242372
  0.6186051934957681  0.0061821891665746  0.8686009003029397
  0.6186051934957683  0.2561821891665746  0.6186009003029397
  0.7425982627321431  0.3761006285535701  0.6169406967365301
  0.6172908610844863  0.1264021054304048  0.9923114312242370
  0.6172908610844863  0.3764021054304048  0.9923114312242369
  0.7425982627321431  0.1261006285535701  0.6169406967365301
  0.6186051934957681  0.2561821891665746  0.8686009003029397
  0.7425982627321429  0.3761006285535701  0.8669406967365300
  0.6186051934957683  0.0061821891665746  0.6186009003029397
  0.6172908610844863  0.6264021054304048  0.2423114312242370
  0.7425982627321431  0.3761006285535701  0.1169406967365301
  0.6172908610844864  0.1264021054304048  0.7423114312242372
  0.6186051934957681  0.5061821891665746  0.1186009003029397
  0.6172908610844863  0.6264021054304048  0.4923114312242370
  0.6186051934957681  0.5061821891665746  0.8686009003029397
  0.6186051934957681  0.7561821891665749  0.8686009003029396
  0.6172908610844863  0.8764021054304050  0.2423114312242370
  0.9925982627321431  0.3761006285535701  0.6169406967365300
  0.8672908610844864  0.3764021054304049  0.9923114312242370
  0.8686051934957683  0.2561821891665746  0.8686009003029397
  0.9925982627321430  0.3761006285535701  0.8669406967365301
  0.8672908610844862  0.6264021054304048  0.2423114312242370
  0.8686051934957683  0.5061821891665746  0.1186009003029397
  0.9925982627321432  0.6261006285535702  0.1169406967365301
  0.8672908610844864  0.6264021054304048  0.4923114312242370
  0.8686051934957684  0.5061821891665746  0.3686009003029397
  0.9925982627321431  0.6261006285535702  0.3669406967365300
  0.8672908610844862  0.6264021054304048  0.7423114312242370
  0.8686051934957683  0.5061821891665746  0.6186009003029397
  0.8686051934957683  0.2561821891665746  0.6186009003029397
  0.9925982627321430  0.6261006285535701  0.6169406967365300
  0.8686051934957683  0.5061821891665746  0.8686009003029397
  0.9925982627321431  0.6261006285535702  0.8669406967365301
  0.8672908610844864  0.8764021054304048  0.2423114312242370
  0.8686051934957683  0.7561821891665745  0.1186009003029397
  0.9925982627321432  0.8761006285535700  0.1169406967365301
  0.8672908610844865  0.8764021054304050  0.4923114312242370
  0.8686051934957684  0.7561821891665748  0.3686009003029397
  0.9925982627321431  0.8761006285535702  0.3669406967365301
  0.8672908610844864  0.8764021054304048  0.7423114312242370
  0.8686051934957683  0.7561821891665745  0.6186009003029397
  0.9925982627321430  0.8761006285535702  0.6169406967365300
  0.8672908610844864  0.8764021054304050  0.9923114312242370
  0.8672908610844862  0.6264021054304049  0.9923114312242370
  0.7425982627321431  0.6261006285535701  0.8669406967365300
  0.8672908610844864  0.3764021054304049  0.7423114312242370
  0.8686051934957684  0.2561821891665746  0.3686009003029397
  0.6186051934957681  0.7561821891665748  0.1186009003029397
  0.7425982627321432  0.8761006285535702  0.1169406967365301
  0.6172908610844863  0.8764021054304050  0.4923114312242370
  0.6186051934957681  0.7561821891665749  0.3686009003029397
  0.7425982627321431  0.8761006285535702  0.3669406967365300
  0.6172908610844863  0.8764021054304050  0.7423114312242370
  0.6186051934957681  0.7561821891665748  0.6186009003029397
  0.7425982627321431  0.8761006285535703  0.6169406967365301
  0.6172908610844863  0.8764021054304050  0.9923114312242369
  0.7425982627321431  0.8761006285535703  0.8669406967365300
  0.8672908610844862  0.1264021054304048  0.2423114312242370
  0.8686051934957683  0.0061821891665746  0.1186009003029397
  0.9925982627321432  0.3761006285535701  0.3669406967365301
  0.9925982627321431  0.1261006285535701  0.1169406967365301
  0.8686051934957684  0.0061821891665746  0.3686009003029397
  0.9925982627321432  0.1261006285535701  0.3669406967365301
  0.8672908610844862  0.1264021054304048  0.7423114312242370
  0.8686051934957683  0.0061821891665746  0.6186009003029398
  0.9925982627321431  0.1261006285535701  0.6169406967365301
  0.8672908610844862  0.1264021054304048  0.9923114312242369
  0.8686051934957683  0.0061821891665746  0.8686009003029396
  0.9925982627321430  0.1261006285535701  0.8669406967365300
  0.8672908610844864  0.3764021054304048  0.2423114312242370
  0.8686051934957683  0.2561821891665746  0.1186009003029397
  0.9925982627321431  0.3761006285535701  0.1169406967365301
  0.8672908610844865  0.3764021054304048  0.4923114312242370
  0.8672908610844864  0.1264021054304048  0.4923114312242370
  0.8686051934957683  0.7561821891665748  0.8686009003029397
  0.4925982627321431  0.8761006285535702  0.8669406967365300
  0.3672908610844864  0.8764021054304050  0.9923114312242370
  0.1172908610844863  0.6264021054304048  0.7423114312242369
  0.1186051934957683  0.5061821891665746  0.6186009003029397
  0.2425982627321431  0.6261006285535701  0.6169406967365301
  0.1172908610844864  0.6264021054304049  0.9923114312242369
  0.1186051934957683  0.5061821891665746  0.8686009003029396
  0.2425982627321431  0.6261006285535702  0.8669406967365300
  0.1172908610844863  0.8764021054304048  0.2423114312242370
  0.1186051934957682  0.7561821891665748  0.1186009003029397
  0.2425982627321432  0.8761006285535700  0.1169406967365301
  0.1172908610844863  0.8764021054304050  0.4923114312242370
  0.1186051934957682  0.7561821891665748  0.3686009003029397
  0.2425982627321432  0.8761006285535702  0.3669406967365300
  0.2425982627321431  0.6261006285535701  0.3669406967365300
  0.1172908610844863  0.8764021054304048  0.7423114312242369
  0.2425982627321432  0.8761006285535702  0.6169406967365301
  0.1172908610844863  0.8764021054304050  0.9923114312242369
  0.3686051934957683  0.7561821891665749  0.8686009003029397
  0.2425982627321432  0.8761006285535703  0.8669406967365300
  0.3672908610844864  0.1264021054304048  0.2423114312242370
  0.3686051934957683  0.0061821891665746  0.1186009003029397
  0.4925982627321430  0.1261006285535701  0.1169406967365301
  0.3672908610844864  0.1264021054304048  0.4923114312242370
  0.3686051934957683  0.0061821891665746  0.3686009003029397
  0.4925982627321431  0.1261006285535701  0.3669406967365301
  0.3672908610844864  0.1264021054304048  0.7423114312242370
  0.3686051934957683  0.0061821891665746  0.6186009003029397
  0.1186051934957682  0.7561821891665748  0.6186009003029397
  0.4925982627321431  0.1261006285535701  0.6169406967365300
  0.1186051934957683  0.5061821891665746  0.3686009003029397
  0.2425982627321432  0.6261006285535701  0.1169406967365301
  0.1172908610844863  0.1264021054304048  0.2423114312242370
  0.1186051934957682  0.0061821891665746  0.1186009003029397
  0.2425982627321432  0.1261006285535701  0.1169406967365301
  0.1172908610844863  0.1264021054304048  0.4923114312242370
  0.1186051934957683  0.0061821891665746  0.3686009003029397
  0.2425982627321432  0.1261006285535701  0.3669406967365301
  0.1172908610844863  0.1264021054304048  0.7423114312242370
  0.1186051934957683  0.0061821891665746  0.6186009003029397
  0.2425982627321432  0.1261006285535701  0.6169406967365301
  0.1172908610844864  0.1264021054304048  0.9923114312242369
  0.1186051934957683  0.0061821891665746  0.8686009003029397
  0.2425982627321432  0.1261006285535701  0.8669406967365300
  0.1172908610844863  0.6264021054304048  0.4923114312242370
  0.1172908610844863  0.3764021054304048  0.2423114312242370
  0.2425982627321431  0.3761006285535701  0.1169406967365301
  0.1172908610844863  0.3764021054304048  0.4923114312242370
  0.1186051934957682  0.2561821891665746  0.3686009003029397
  0.2425982627321431  0.3761006285535701  0.3669406967365300
  0.1172908610844863  0.3764021054304048  0.7423114312242369
  0.1186051934957682  0.2561821891665746  0.6186009003029397
  0.2425982627321431  0.3761006285535701  0.6169406967365301
  0.1172908610844863  0.3764021054304048  0.9923114312242369
  0.1186051934957682  0.2561821891665746  0.8686009003029397
  0.2425982627321431  0.3761006285535701  0.8669406967365300
  0.1172908610844863  0.6264021054304048  0.2423114312242370
  0.1186051934957682  0.5061821891665746  0.1186009003029397
  0.1186051934957682  0.2561821891665746  0.1186009003029397
  0.3672908610844864  0.1264021054304048  0.9923114312242369
  0.1186051934957682  0.7561821891665748  0.8686009003029396
  0.4925982627321431  0.1261006285535701  0.8669406967365300
  0.4925982627321431  0.3761006285535701  0.8669406967365301
  0.3672908610844864  0.6264021054304048  0.2423114312242370
  0.3686051934957683  0.5061821891665746  0.1186009003029397
  0.4925982627321431  0.6261006285535702  0.1169406967365301
  0.3672908610844864  0.6264021054304048  0.4923114312242370
  0.3686051934957683  0.0061821891665746  0.8686009003029396
  0.4925982627321431  0.6261006285535702  0.3669406967365300
  0.3672908610844864  0.6264021054304048  0.7423114312242370
  0.3686051934957683  0.5061821891665746  0.6186009003029397
  0.4925982627321431  0.6261006285535701  0.6169406967365300
  0.3686051934957683  0.2561821891665746  0.8686009003029397
  0.3672908610844863  0.6264021054304049  0.9923114312242370
  0.4925982627321432  0.6261006285535702  0.8669406967365301
  0.3672908610844864  0.8764021054304050  0.2423114312242370
  0.3686051934957683  0.7561821891665748  0.1186009003029397
  0.4925982627321431  0.8761006285535703  0.1169406967365300
  0.3672908610844863  0.8764021054304050  0.4923114312242370
  0.3686051934957683  0.7561821891665748  0.3686009003029397
  0.4925982627321432  0.8761006285535703  0.3669406967365301
  0.3672908610844864  0.8764021054304050  0.7423114312242370
  0.3686051934957683  0.7561821891665748  0.6186009003029397
  0.4925982627321431  0.8761006285535702  0.6169406967365300
  0.3686051934957683  0.5061821891665746  0.8686009003029397
  0.3672908610844864  0.3764021054304049  0.9923114312242370
  0.3686051934957683  0.5061821891665746  0.3686009003029397
  0.9925982627321431  0.8761006285535703  0.8669406967365300
  0.4925982627321430  0.3761006285535701  0.6169406967365300
  0.3672908610844864  0.3764021054304048  0.2423114312242370
  0.3686051934957683  0.2561821891665746  0.6186009003029397
  0.3672908610844864  0.3764021054304048  0.4923114312242370
  0.3672908610844864  0.3764021054304049  0.7423114312242370
  0.4925982627321431  0.3761006285535701  0.3669406967365300
  0.3686051934957683  0.2561821891665746  0.3686009003029397
  0.4925982627321431  0.3761006285535701  0.1169406967365301
  0.3686051934957683  0.2561821891665746  0.1186009003029397
  0.3674930597004011  0.8825201654975037  0.3671398111439930
  0.1174930597004011  0.3825201654975036  0.1171398111439931
  0.8674930597004010  0.6325201654975037  0.8671398111439932
  0.1174930597004011  0.3825201654975036  0.3671398111439930
  0.8674930597004010  0.6325201654975037  0.6171398111439930
  0.6174930597004010  0.1325201654975036  0.8671398111439930
  0.3674930597004011  0.8825201654975037  0.1171398111439930
  0.3674930597004011  0.3825201654975035  0.3671398111439930
  0.3674930597004011  0.1325201654975036  0.6171398111439930
  0.6174930597004010  0.1325201654975036  0.6171398111439931
  0.8674930597004011  0.8825201654975036  0.1171398111439930
  0.1174930597004011  0.3825201654975036  0.6171398111439930
  0.1174930597004011  0.1325201654975036  0.1171398111439930
  0.8674930597004010  0.8825201654975037  0.8671398111439932
  0.6174930597004010  0.1325201654975036  0.1171398111439930
  0.3674930597004011  0.8825201654975037  0.8671398111439930
  0.6174930597004010  0.8825201654975037  0.1171398111439930
  0.1174930597004011  0.1325201654975036  0.3671398111439931
  0.8674930597004010  0.8825201654975036  0.6171398111439930
  0.3674930597004011  0.1325201654975036  0.8671398111439930
  0.3674930597004011  0.3825201654975035  0.1171398111439930
  0.6174930597004010  0.1325201654975036  0.3671398111439931
  0.1174930597004011  0.1325201654975036  0.6171398111439930
  0.8674930597004011  0.8825201654975037  0.3671398111439930
  0.3674930597004011  0.8825201654975037  0.6171398111439930
  0.6174930597004010  0.6325201654975037  0.8671398111439930
  0.1174930597004011  0.1325201654975036  0.8671398111439930
  0.6174930597004010  0.8825201654975038  0.3671398111439930
  0.8674930597004011  0.6325201654975037  0.3671398111439930
  0.8674930597004011  0.1325201654975036  0.3671398111439930
  0.3674930597004011  0.1325201654975036  0.3671398111439930
  0.1174930597004011  0.8825201654975037  0.6171398111439930
  0.3674930597004011  0.3825201654975036  0.8671398111439932
  0.6174930597004010  0.6325201654975036  0.1171398111439930
  0.8674930597004010  0.1325201654975036  0.6171398111439931
  0.1174930597004011  0.8825201654975037  0.3671398111439930
  0.1174930597004011  0.8825201654975037  0.8671398111439930
  0.3674930597004011  0.6325201654975037  0.1171398111439930
  0.8674930597004010  0.1325201654975036  0.8671398111439930
  0.1174930597004011  0.8825201654975037  0.1171398111439931
  0.6174930597004010  0.3825201654975036  0.8671398111439930
  0.8674930597004011  0.1325201654975036  0.1171398111439931
  0.6174930597004010  0.6325201654975036  0.3671398111439930
  0.8674930597004012  0.3825201654975035  0.1171398111439930
  0.1174930597004011  0.6325201654975037  0.8671398111439930
  0.3674930597004011  0.3825201654975036  0.6171398111439930
  0.3674930597004011  0.6325201654975037  0.3671398111439930
  0.6174930597004010  0.3825201654975036  0.6171398111439930
  0.6174930597004010  0.3825201654975036  0.1171398111439930
  0.8674930597004011  0.6325201654975036  0.1171398111439931
  0.3674930597004011  0.6325201654975037  0.8671398111439932
  0.6174930597004010  0.6325201654975036  0.6171398111439930
  0.1174930597004011  0.6325201654975036  0.1171398111439930
  0.8674930597004011  0.3825201654975036  0.8671398111439932
  0.6174930597004010  0.8825201654975037  0.6171398111439930
  0.6174930597004010  0.3825201654975036  0.3671398111439931
  0.1174930597004011  0.6325201654975036  0.3671398111439930
  0.8674930597004011  0.3825201654975036  0.6171398111439930
  0.6174930597004010  0.8825201654975038  0.8671398111439930
  0.3674930597004011  0.1325201654975036  0.1171398111439930
  0.1174930597004011  0.6325201654975036  0.6171398111439930
  0.8674930597004012  0.3825201654975035  0.3671398111439930
  0.3674930597004011  0.6325201654975037  0.6171398111439930
  0.1174930597004011  0.3825201654975036  0.8671398111439930
