POSCAR_2x2x2_CsPbI3
 1.0000000000000000
    12.5141243770067501   -0.0918269460039002   -0.0486882868643798
     0.0270006515723762   12.5678713652203715    0.0180724694987622
     0.0566900598546506   -0.0986674334082124   12.5135034737563995
  Cs   I  Pb
   8  24   8
Direct
  0.4812612464744000  0.0462298367038951  0.4792653191845924
  0.9812612464743999  0.5462298367038951  0.9792653191845925
  0.4812612464743999  0.5462298367038951  0.9792653191845923
  0.4812612464744000  0.0462298367038951  0.9792653191845923
  0.9812612464743998  0.5462298367038951  0.4792653191845924
  0.9812612464743999  0.0462298367038952  0.9792653191845925
  0.9812612464743999  0.0462298367038951  0.4792653191845924
  0.4812612464743999  0.5462298367038952  0.4792653191845924
  0.7345817221689729  0.2528042108608096  0.4846228624484741
  0.7372103869915366  0.0123643783331492  0.2372018006058795
  0.9851965254642860  0.2522012571071402  0.2338813934730601
  0.7372103869915365  0.0123643783331492  0.7372018006058795
  0.9851965254642863  0.2522012571071402  0.7338813934730601
  0.7345817221689728  0.7528042108608095  0.4846228624484741
  0.7372103869915366  0.5123643783331492  0.2372018006058795
  0.9851965254642863  0.7522012571071403  0.2338813934730601
  0.7345817221689728  0.7528042108608095  0.9846228624484740
  0.7345817221689728  0.2528042108608096  0.9846228624484740
  0.7372103869915365  0.5123643783331492  0.7372018006058794
  0.4851965254642862  0.7522012571071401  0.7338813934730600
  0.2345817221689726  0.7528042108608095  0.9846228624484741
  0.2345817221689727  0.2528042108608096  0.4846228624484741
  0.2372103869915365  0.0123643783331492  0.2372018006058795
  0.4851965254642863  0.2522012571071402  0.2338813934730601
  0.2345817221689727  0.2528042108608096  0.9846228624484741
  0.2372103869915365  0.5123643783331492  0.7372018006058794
  0.4851965254642863  0.2522012571071402  0.7338813934730601
  0.2372103869915365  0.0123643783331492  0.7372018006058795
  0.2345817221689727  0.7528042108608095  0.4846228624484741
  0.2372103869915365  0.5123643783331492  0.2372018006058795
  0.4851965254642862  0.7522012571071403  0.2338813934730601
  0.9851965254642863  0.7522012571071403  0.7338813934730600
  0.7349861194008022  0.2650403309950072  0.7342796222879860
  0.7349861194008022  0.7650403309950070  0.2342796222879861
  0.2349861194008022  0.2650403309950072  0.7342796222879863
  0.2349861194008021  0.7650403309950072  0.7342796222879860
  0.7349861194008022  0.2650403309950072  0.2342796222879861
  0.7349861194008022  0.7650403309950070  0.7342796222879860
  0.2349861194008022  0.2650403309950072  0.2342796222879861
  0.2349861194008022  0.7650403309950072  0.2342796222879861
