POSCAR_6x6x6_FAPI
 1.0000000000000000
    38.4447612761999977    0.0000000000000000    0.0000000000000000
     0.0000050058000000   37.5937213895999989    0.0000000000000000
     0.0000000000000000    0.0000000000000000   38.0254211423999990
   C   H   I   N  Pb
 216 1080 648 432 216
Direct
  0.0833335021666667  0.0867633323333333  0.0833333333333333
  0.4166668355000000  0.2534299990000000  0.2500000000000000
  0.9166668355000001  0.5867633323333333  0.7500000000000000
  0.7500001688333333  0.0867633323333333  0.0833333333333333
  0.5833335021666666  0.0867633323333333  0.0833333333333333
  0.2500001688333333  0.4200966656666666  0.2500000000000000
  0.9166668355000001  0.0867633323333333  0.5833333333333334
  0.7500001688333333  0.5867633323333333  0.2500000000000000
  0.0833335021666667  0.5867633323333333  0.4166666666666667
  0.5833335021666666  0.9200966656666667  0.9166666666666666
  0.4166668355000000  0.2534299990000000  0.0833333333333333
  0.7500001688333333  0.5867633323333333  0.4166666666666667
  0.9166668355000001  0.5867633323333333  0.9166666666666666
  0.0833335021666667  0.5867633323333333  0.2500000000000000
  0.2500001688333333  0.4200966656666666  0.4166666666666667
  0.5833335021666666  0.0867633323333333  0.2500000000000000
  0.5833335021666666  0.0867633323333333  0.4166666666666667
  0.0833335021666667  0.5867633323333333  0.5833333333333334
  0.4166668355000000  0.9200966656666667  0.9166666666666666
  0.0833335021666667  0.7534299990000000  0.0833333333333333
  0.9166668355000001  0.5867633323333333  0.4166666666666667
  0.7500001688333333  0.0867633323333333  0.4166666666666667
  0.4166668355000000  0.9200966656666667  0.5833333333333334
  0.4166668355000000  0.2534299990000000  0.5833333333333334
  0.7500001688333333  0.5867633323333333  0.0833333333333333
  0.2500001688333333  0.4200966656666666  0.0833333333333333
  0.0833335021666667  0.5867633323333333  0.9166666666666666
  0.4166668355000000  0.9200966656666667  0.7500000000000000
  0.7500001688333333  0.0867633323333333  0.2500000000000000
  0.9166668355000001  0.5867633323333333  0.5833333333333334
  0.0833335021666667  0.5867633323333333  0.7500000000000000
  0.4166668355000000  0.2534299990000000  0.4166666666666667
  0.9166668355000001  0.0867633323333333  0.7500000000000000
  0.2500001688333333  0.2534299990000000  0.9166666666666666
  0.9166668355000001  0.0867633323333333  0.9166666666666666
  0.7500001688333333  0.2534299990000000  0.9166666666666666
  0.0833335021666667  0.5867633323333333  0.0833333333333333
  0.5833335021666666  0.9200966656666667  0.4166666666666667
  0.5833335021666666  0.2534299990000000  0.0833333333333333
  0.9166668355000001  0.7534299990000000  0.4166666666666667
  0.2500001688333333  0.4200966656666666  0.9166666666666666
  0.0833335021666667  0.4200966656666666  0.4166666666666667
  0.4166668355000000  0.0867633323333333  0.4166666666666667
  0.0833335021666667  0.4200966656666666  0.5833333333333334
  0.5833335021666666  0.2534299990000000  0.2500000000000000
  0.9166668355000001  0.0867633323333333  0.0833333333333333
  0.2500001688333333  0.5867633323333333  0.0833333333333333
  0.9166668355000001  0.7534299990000000  0.5833333333333334
  0.0833335021666667  0.4200966656666666  0.2500000000000000
  0.5833335021666666  0.2534299990000000  0.4166666666666667
  0.7500001688333333  0.5867633323333333  0.9166666666666666
  0.5833335021666666  0.9200966656666667  0.2500000000000000
  0.4166668355000000  0.0867633323333333  0.9166666666666666
  0.7500001688333333  0.5867633323333333  0.7500000000000000
  0.5833335021666666  0.0867633323333333  0.9166666666666666
  0.5833335021666666  0.9200966656666667  0.7500000000000000
  0.9166668355000001  0.7534299990000000  0.0833333333333333
  0.5833335021666666  0.0867633323333333  0.5833333333333334
  0.9166668355000001  0.0867633323333333  0.4166666666666667
  0.2500001688333333  0.4200966656666666  0.5833333333333334
  0.0833335021666667  0.4200966656666666  0.9166666666666666
  0.4166668355000000  0.0867633323333333  0.5833333333333334
  0.7500001688333333  0.5867633323333333  0.5833333333333334
  0.5833335021666666  0.0867633323333333  0.7500000000000000
  0.5833335021666666  0.9200966656666667  0.5833333333333334
  0.9166668355000001  0.7534299990000000  0.2500000000000000
  0.0833335021666667  0.4200966656666666  0.7500000000000000
  0.2500001688333333  0.4200966656666666  0.7500000000000000
  0.9166668355000001  0.0867633323333333  0.2500000000000000
  0.4166668355000000  0.0867633323333333  0.7500000000000000
  0.2500001688333333  0.2534299990000000  0.7500000000000000
  0.4166668355000000  0.9200966656666667  0.4166666666666667
  0.4166668355000000  0.2534299990000000  0.7500000000000000
  0.4166668355000000  0.5867633323333333  0.9166666666666666
  0.7500001688333333  0.4200966656666666  0.2500000000000000
  0.0833335021666667  0.9200966656666667  0.5833333333333334
  0.4166668355000000  0.4200966656666666  0.7500000000000000
  0.9166668355000001  0.4200966656666666  0.4166666666666667
  0.2500001688333333  0.0867633323333333  0.7500000000000000
  0.4166668355000000  0.4200966656666666  0.9166666666666666
  0.9166668355000001  0.2534299990000000  0.5833333333333334
  0.4166668355000000  0.7534299990000000  0.0833333333333333
  0.0833335021666667  0.9200966656666667  0.4166666666666667
  0.4166668355000000  0.4200966656666666  0.5833333333333334
  0.2500001688333333  0.0867633323333333  0.9166666666666666
  0.7500001688333333  0.4200966656666666  0.4166666666666667
  0.4166668355000000  0.7534299990000000  0.2500000000000000
  0.7500001688333333  0.2534299990000000  0.4166666666666667
  0.7500001688333333  0.2534299990000000  0.2500000000000000
  0.7500001688333333  0.2534299990000000  0.5833333333333334
  0.9166668355000001  0.4200966656666666  0.2500000000000000
  0.2500001688333333  0.0867633323333333  0.2500000000000000
  0.9166668355000001  0.2534299990000000  0.9166666666666666
  0.4166668355000000  0.5867633323333333  0.4166666666666667
  0.2500001688333333  0.0867633323333333  0.0833333333333333
  0.9166668355000001  0.4200966656666666  0.0833333333333333
  0.2500001688333333  0.0867633323333333  0.4166666666666667
  0.0833335021666667  0.9200966656666667  0.7500000000000000
  0.4166668355000000  0.5867633323333333  0.0833333333333333
  0.7500001688333333  0.2534299990000000  0.7500000000000000
  0.4166668355000000  0.5867633323333333  0.5833333333333334
  0.0833335021666667  0.9200966656666667  0.9166666666666666
  0.9166668355000001  0.2534299990000000  0.7500000000000000
  0.2500001688333333  0.0867633323333333  0.5833333333333334
  0.4166668355000000  0.5867633323333333  0.7500000000000000
  0.7500001688333333  0.4200966656666666  0.0833333333333333
  0.9166668355000001  0.4200966656666666  0.5833333333333334
  0.0833335021666667  0.9200966656666667  0.2500000000000000
  0.4166668355000000  0.7534299990000000  0.4166666666666667
  0.2500001688333333  0.2534299990000000  0.4166666666666667
  0.0833335021666667  0.7534299990000000  0.5833333333333334
  0.9166668355000001  0.5867633323333333  0.0833333333333333
  0.7500001688333333  0.0867633323333333  0.7500000000000000
  0.4166668355000000  0.9200966656666667  0.0833333333333333
  0.9166668355000001  0.2534299990000000  0.0833333333333333
  0.7500001688333333  0.4200966656666666  0.7500000000000000
  0.0833335021666667  0.7534299990000000  0.4166666666666667
  0.2500001688333333  0.2534299990000000  0.5833333333333334
  0.4166668355000000  0.9200966656666667  0.2500000000000000
  0.7500001688333333  0.0867633323333333  0.5833333333333334
  0.9166668355000001  0.5867633323333333  0.2500000000000000
  0.0833335021666667  0.7534299990000000  0.2500000000000000
  0.7500001688333333  0.4200966656666666  0.9166666666666666
  0.4166668355000000  0.2534299990000000  0.9166666666666666
  0.4166668355000000  0.4200966656666666  0.0833333333333333
  0.4166668355000000  0.7534299990000000  0.9166666666666666
  0.0833335021666667  0.7534299990000000  0.7500000000000000
  0.9166668355000001  0.2534299990000000  0.4166666666666667
  0.4166668355000000  0.4200966656666666  0.4166666666666667
  0.0833335021666667  0.9200966656666667  0.0833333333333333
  0.2500001688333333  0.2534299990000000  0.0833333333333333
  0.9166668355000001  0.4200966656666666  0.7500000000000000
  0.7500001688333333  0.2534299990000000  0.0833333333333333
  0.4166668355000000  0.7534299990000000  0.5833333333333334
  0.0833335021666667  0.7534299990000000  0.9166666666666666
  0.7500001688333333  0.4200966656666666  0.5833333333333334
  0.4166668355000000  0.4200966656666666  0.2500000000000000
  0.2500001688333333  0.2534299990000000  0.2500000000000000
  0.9166668355000001  0.2534299990000000  0.2500000000000000
  0.4166668355000000  0.7534299990000000  0.7500000000000000
  0.7500001688333333  0.0867633323333333  0.9166666666666666
  0.9166668355000001  0.4200966656666666  0.9166666666666666
  0.4166668355000000  0.0867633323333333  0.2500000000000000
  0.5833335021666666  0.9200966656666667  0.0833333333333333
  0.4166668355000000  0.5867633323333333  0.2500000000000000
  0.5833335021666666  0.2534299990000000  0.5833333333333334
  0.7500001688333333  0.9200966656666667  0.5833333333333334
  0.2500001688333333  0.5867633323333333  0.7500000000000000
  0.5833335021666666  0.7534299990000000  0.5833333333333334
  0.5833335021666666  0.4200966656666666  0.2500000000000000
  0.0833335021666667  0.0867633323333333  0.5833333333333334
  0.0833335021666667  0.2534299990000000  0.4166666666666667
  0.2500001688333333  0.9200966656666667  0.0833333333333333
  0.7500001688333333  0.7534299990000000  0.7500000000000000
  0.9166668355000001  0.9200966656666667  0.7500000000000000
  0.2500001688333333  0.9200966656666667  0.7500000000000000
  0.9166668355000001  0.9200966656666667  0.0833333333333333
  0.2500001688333333  0.5867633323333333  0.5833333333333334
  0.0833335021666667  0.2534299990000000  0.5833333333333334
  0.5833335021666666  0.4200966656666666  0.0833333333333333
  0.5833335021666666  0.7534299990000000  0.7500000000000000
  0.5833335021666666  0.5867633323333333  0.2500000000000000
  0.7500001688333333  0.9200966656666667  0.7500000000000000
  0.5833335021666666  0.5867633323333333  0.9166666666666666
  0.0833335021666667  0.0867633323333333  0.4166666666666667
  0.2500001688333333  0.7534299990000000  0.4166666666666667
  0.2500001688333333  0.7534299990000000  0.9166666666666666
  0.5833335021666666  0.5867633323333333  0.0833333333333333
  0.2500001688333333  0.9200966656666667  0.9166666666666666
  0.5833335021666666  0.7534299990000000  0.0833333333333333
  0.2500001688333333  0.7534299990000000  0.2500000000000000
  0.7500001688333333  0.9200966656666667  0.4166666666666667
  0.0833335021666667  0.0867633323333333  0.9166666666666666
  0.5833335021666666  0.7534299990000000  0.2500000000000000
  0.2500001688333333  0.7534299990000000  0.0833333333333333
  0.2500001688333333  0.9200966656666667  0.4166666666666667
  0.9166668355000001  0.9200966656666667  0.4166666666666667
  0.7500001688333333  0.7534299990000000  0.5833333333333334
  0.2500001688333333  0.9200966656666667  0.2500000000000000
  0.0833335021666667  0.4200966656666666  0.0833333333333333
  0.0833335021666667  0.2534299990000000  0.0833333333333333
  0.5833335021666666  0.4200966656666666  0.5833333333333334
  0.5833335021666666  0.7534299990000000  0.4166666666666667
  0.2500001688333333  0.5867633323333333  0.9166666666666666
  0.5833335021666666  0.4200966656666666  0.9166666666666666
  0.9166668355000001  0.9200966656666667  0.5833333333333334
  0.0833335021666667  0.0867633323333333  0.7500000000000000
  0.7500001688333333  0.7534299990000000  0.4166666666666667
  0.2500001688333333  0.9200966656666667  0.5833333333333334
  0.0833335021666667  0.2534299990000000  0.2500000000000000
  0.9166668355000001  0.9200966656666667  0.2500000000000000
  0.5833335021666666  0.4200966656666666  0.4166666666666667
  0.7500001688333333  0.9200966656666667  0.2500000000000000
  0.5833335021666666  0.2534299990000000  0.9166666666666666
  0.7500001688333333  0.7534299990000000  0.2500000000000000
  0.2500001688333333  0.7534299990000000  0.5833333333333334
  0.0833335021666667  0.0867633323333333  0.2500000000000000
  0.5833335021666666  0.7534299990000000  0.9166666666666666
  0.5833335021666666  0.2534299990000000  0.7500000000000000
  0.7500001688333333  0.9200966656666667  0.0833333333333333
  0.0833335021666667  0.2534299990000000  0.9166666666666666
  0.7500001688333333  0.7534299990000000  0.0833333333333333
  0.2500001688333333  0.5867633323333333  0.4166666666666667
  0.4166668355000000  0.0867633323333333  0.0833333333333333
  0.5833335021666666  0.5867633323333333  0.7500000000000000
  0.5833335021666666  0.5867633323333333  0.5833333333333334
  0.7500001688333333  0.9200966656666667  0.9166666666666666
  0.2500001688333333  0.7534299990000000  0.7500000000000000
  0.2500001688333333  0.5867633323333333  0.2500000000000000
  0.9166668355000001  0.7534299990000000  0.7500000000000000
  0.7500001688333333  0.7534299990000000  0.9166666666666666
  0.9166668355000001  0.9200966656666667  0.9166666666666666
  0.5833335021666666  0.4200966656666666  0.7500000000000000
  0.5833335021666666  0.5867633323333333  0.4166666666666667
  0.9166668355000001  0.7534299990000000  0.9166666666666666
  0.0833335021666667  0.2534299990000000  0.7500000000000000
  0.2836624980000000  0.8772316675000000  0.0833333333333333
  0.3830041686666667  0.3772316675000000  0.0833333333333333
  0.3830041686666667  0.5438983341666667  0.0833333333333333
  0.3647029996666667  0.4200793306666666  0.0833333333333333
  0.7163375019999999  0.7105650008333334  0.7500000000000000
  0.8019636670000000  0.7534126640000000  0.5833333333333334
  0.4503291646666666  0.5438983341666667  0.0833333333333333
  0.7163375019999999  0.3772316675000000  0.5833333333333334
  0.7836624980000000  0.7105650008333334  0.5833333333333334
  0.4686303336666667  0.5867459973333333  0.0833333333333333
  0.7836624980000000  0.3772316675000000  0.5833333333333334
  0.4503291646666666  0.3772316675000000  0.0833333333333333
  0.4686303336666667  0.4200793306666666  0.2500000000000000
  0.7163375019999999  0.7105650008333334  0.5833333333333334
  0.8019636670000000  0.4200793306666666  0.5833333333333334
  0.7500000000000000  0.4492913286666667  0.5833333333333334
  0.1980363330000000  0.9200793306666666  0.0833333333333333
  0.2163375020000000  0.8772316675000000  0.0833333333333333
  0.4166666666666667  0.6159579953333334  0.0833333333333333
  0.6980363330000000  0.2534126640000000  0.9166666666666666
  0.4166666666666667  0.4492913286666667  0.2500000000000000
  0.2163375020000000  0.7105650008333334  0.7500000000000000
  0.4686303336666667  0.4200793306666666  0.0833333333333333
  0.4166666666666667  0.4492913286666667  0.0833333333333333
  0.8019636670000000  0.7534126640000000  0.9166666666666666
  0.8019636670000000  0.4200793306666666  0.7500000000000000
  0.4166666666666667  0.2826246620000000  0.9166666666666666
  0.7500000000000000  0.7826246620000000  0.9166666666666666
  0.7500000000000000  0.2826246620000000  0.9166666666666666
  0.4686303336666667  0.2534126640000000  0.9166666666666666
  0.4503291646666667  0.2105650008333333  0.9166666666666666
  0.3019636670000000  0.9200793306666666  0.2500000000000000
  0.3830041686666667  0.2105650008333333  0.9166666666666666
  0.3647029996666667  0.2534126640000000  0.9166666666666666
  0.8019636670000000  0.2534126640000000  0.9166666666666666
  0.7836624980000001  0.2105650008333333  0.9166666666666666
  0.7500000000000000  0.4492913286666667  0.7500000000000000
  0.7163375020000000  0.2105650008333333  0.9166666666666666
  0.2500000000000000  0.9492913286666665  0.2500000000000000
  0.3830041686666667  0.3772316675000000  0.7500000000000000
  0.3647029996666667  0.5867459973333333  0.0833333333333333
  0.4503291646666666  0.3772316675000000  0.7500000000000000
  0.7500000000000000  0.7826246620000000  0.5833333333333334
  0.4686303336666667  0.4200793306666666  0.7500000000000000
  0.6980363330000000  0.4200793306666666  0.5833333333333334
  0.4166666666666667  0.4492913286666667  0.7500000000000000
  0.7163375019999999  0.3772316675000000  0.0833333333333333
  0.2500000000000001  0.7826246620000000  0.7500000000000000
  0.4503291646666666  0.3772316675000000  0.2500000000000000
  0.6169958313333332  0.5438983341666667  0.5833333333333334
  0.4686303336666667  0.4200793306666666  0.9166666666666666
  0.7500000000000000  0.7826246620000000  0.7500000000000000
  0.1980363330000000  0.7534126640000000  0.9166666666666666
  0.2163375020000000  0.7105650008333334  0.9166666666666666
  0.4166666666666667  0.4492913286666667  0.9166666666666666
  0.7836624980000000  0.3772316675000000  0.7500000000000000
  0.2836624980000000  0.7105650008333334  0.9166666666666666
  0.6980363330000000  0.4200793306666666  0.2500000000000000
  0.4166666666666667  0.4492913286666667  0.5833333333333334
  0.4686303336666667  0.4200793306666666  0.5833333333333334
  0.4503291646666666  0.3772316675000000  0.5833333333333334
  0.3830041686666667  0.3772316675000000  0.5833333333333334
  0.8019636670000000  0.4200793306666666  0.0833333333333333
  0.3019636670000000  0.7534126640000000  0.9166666666666666
  0.3647029996666667  0.4200793306666666  0.5833333333333334
  0.7163375019999999  0.3772316675000000  0.2500000000000000
  0.8019636670000000  0.4200793306666666  0.2500000000000000
  0.7836624980000000  0.3772316675000000  0.0833333333333333
  0.2500000000000001  0.7826246620000000  0.9166666666666666
  0.1980363330000000  0.7534126640000000  0.7500000000000000
  0.6980363330000000  0.7534126640000000  0.7500000000000000
  0.7500000000000000  0.4492913286666667  0.4166666666666667
  0.3647029996666667  0.4200793306666666  0.4166666666666667
  0.3830041686666667  0.3772316675000000  0.4166666666666667
  0.3019636670000000  0.9200793306666666  0.0833333333333333
  0.7836624980000000  0.7105650008333334  0.7500000000000000
  0.3830041686666667  0.3772316675000000  0.2500000000000000
  0.3647029996666667  0.4200793306666666  0.2500000000000000
  0.6980363330000000  0.4200793306666666  0.4166666666666667
  0.8019636670000000  0.7534126640000000  0.7500000000000000
  0.7163375019999999  0.3772316675000000  0.4166666666666667
  0.6980363330000000  0.4200793306666666  0.0833333333333333
  0.3019636670000000  0.7534126640000000  0.7500000000000000
  0.2836624980000000  0.7105650008333334  0.7500000000000000
  0.7836624980000000  0.3772316675000000  0.2500000000000000
  0.7500000000000000  0.4492913286666667  0.0833333333333333
  0.7836624980000000  0.3772316675000000  0.4166666666666667
  0.7500000000000000  0.4492913286666667  0.2500000000000000
  0.3647029996666667  0.4200793306666666  0.9166666666666666
  0.6980363330000000  0.7534126640000000  0.5833333333333334
  0.3830041686666667  0.3772316675000000  0.9166666666666666
  0.8019636670000000  0.4200793306666666  0.4166666666666667
  0.4166666666666667  0.4492913286666667  0.4166666666666667
  0.4503291646666666  0.3772316675000000  0.9166666666666666
  0.4686303336666667  0.4200793306666666  0.4166666666666667
  0.4503291646666666  0.3772316675000000  0.4166666666666667
  0.2500000000000000  0.9492913286666665  0.0833333333333333
  0.3647029996666667  0.4200793306666666  0.7500000000000000
  0.8019636670000000  0.7534126640000000  0.4166666666666667
  0.7163375019999999  0.3772316675000000  0.7500000000000000
  0.3830041686666667  0.0438983341666667  0.5833333333333334
  0.3019636670000000  0.9200793306666666  0.9166666666666666
  0.2500000000000000  0.9492913286666665  0.9166666666666666
  0.8019636670000000  0.7534126640000000  0.0833333333333333
  0.3647029996666667  0.0867459973333333  0.5833333333333334
  0.7163375019999999  0.5438983341666667  0.5833333333333334
  0.7836624980000000  0.5438983341666667  0.5833333333333334
  0.8019636670000000  0.5867459973333333  0.5833333333333334
  0.7500000000000000  0.6159579953333334  0.5833333333333334
  0.7836624980000000  0.7105650008333334  0.0833333333333333
  0.7163375019999999  0.7105650008333334  0.0833333333333333
  0.4166666666666667  0.1159579953333333  0.7500000000000000
  0.6980363330000000  0.7534126640000000  0.0833333333333333
  0.4503291646666667  0.0438983341666667  0.5833333333333334
  0.4686303336666667  0.0867459973333333  0.7500000000000000
  0.3830041686666667  0.0438983341666667  0.7500000000000000
  0.1980363330000000  0.9200793306666666  0.7500000000000000
  0.3647029996666667  0.0867459973333333  0.7500000000000000
  0.6980363330000000  0.5867459973333333  0.4166666666666667
  0.2163375020000000  0.8772316675000000  0.7500000000000000
  0.2836624980000000  0.8772316675000000  0.7500000000000000
  0.7163375019999999  0.5438983341666667  0.4166666666666667
  0.7836624980000000  0.5438983341666667  0.4166666666666667
  0.8019636670000000  0.5867459973333333  0.4166666666666667
  0.4166666666666667  0.1159579953333333  0.9166666666666666
  0.4503291646666667  0.0438983341666667  0.9166666666666666
  0.3830041686666667  0.0438983341666667  0.9166666666666666
  0.3019636670000000  0.9200793306666666  0.7500000000000000
  0.4503291646666667  0.0438983341666667  0.7500000000000000
  0.4686303336666667  0.0867459973333333  0.5833333333333334
  0.4166666666666667  0.1159579953333333  0.5833333333333334
  0.6980363330000000  0.5867459973333333  0.5833333333333334
  0.3647029996666667  0.0867459973333333  0.0833333333333333
  0.7163375019999999  0.5438983341666667  0.9166666666666666
  0.7836624980000000  0.5438983341666667  0.9166666666666666
  0.8019636670000000  0.5867459973333333  0.9166666666666666
  0.7500000000000000  0.6159579953333334  0.9166666666666666
  0.3830041686666667  0.0438983341666667  0.0833333333333333
  0.4166666666666667  0.1159579953333333  0.2500000000000000
  0.4686303336666667  0.0867459973333333  0.2500000000000000
  0.4503291646666667  0.0438983341666667  0.0833333333333333
  0.4503291646666667  0.0438983341666667  0.2500000000000000
  0.4686303336666667  0.0867459973333333  0.0833333333333333
  0.3830041686666667  0.0438983341666667  0.2500000000000000
  0.3647029996666667  0.0867459973333333  0.2500000000000000
  0.4166666666666667  0.1159579953333333  0.0833333333333333
  0.6980363330000000  0.5867459973333333  0.7500000000000000
  0.6980363330000000  0.5867459973333333  0.9166666666666666
  0.7163375019999999  0.5438983341666667  0.7500000000000000
  0.7836624980000000  0.5438983341666667  0.7500000000000000
  0.8019636670000000  0.5867459973333333  0.7500000000000000
  0.4166666666666667  0.1159579953333333  0.4166666666666667
  0.4686303336666667  0.0867459973333333  0.4166666666666667
  0.4503291646666667  0.0438983341666667  0.4166666666666667
  0.7500000000000000  0.7826246620000000  0.0833333333333333
  0.3830041686666667  0.0438983341666667  0.4166666666666667
  0.3647029996666667  0.0867459973333333  0.4166666666666667
  0.1980363330000000  0.9200793306666666  0.9166666666666666
  0.2163375020000000  0.8772316675000000  0.9166666666666666
  0.7500000000000000  0.6159579953333334  0.7500000000000000
  0.2836624980000000  0.8772316675000000  0.9166666666666666
  0.3647029996666667  0.0867459973333333  0.9166666666666666
  0.2836624980000000  0.8772316675000000  0.2500000000000000
  0.7500000000000000  0.6159579953333334  0.4166666666666667
  0.7500000000000000  0.7826246620000000  0.2500000000000000
  0.7500000000000000  0.7826246620000000  0.4166666666666667
  0.1980363330000000  0.9200793306666666  0.4166666666666667
  0.7500000000000000  0.6159579953333334  0.0833333333333333
  0.2163375020000000  0.8772316675000000  0.4166666666666667
  0.2836624980000000  0.8772316675000000  0.4166666666666667
  0.6980363330000000  0.4200793306666666  0.9166666666666666
  0.4166666666666667  0.2826246620000000  0.5833333333333334
  0.3019636670000000  0.9200793306666666  0.4166666666666667
  0.4686303336666667  0.2534126640000000  0.5833333333333334
  0.4503291646666667  0.2105650008333333  0.5833333333333334
  0.3830041686666667  0.2105650008333333  0.5833333333333334
  0.3647029996666667  0.2534126640000000  0.5833333333333334
  0.7163375019999999  0.3772316675000000  0.9166666666666666
  0.3647029996666667  0.2534126640000000  0.4166666666666667
  0.2500000000000000  0.9492913286666665  0.4166666666666667
  0.8019636670000000  0.4200793306666666  0.9166666666666666
  0.7500000000000000  0.4492913286666667  0.9166666666666666
  0.7836624980000000  0.7105650008333334  0.4166666666666667
  0.4166666666666667  0.2826246620000000  0.7500000000000000
  0.7163375019999999  0.7105650008333334  0.4166666666666667
  0.4686303336666667  0.2534126640000000  0.7500000000000000
  0.4503291646666667  0.2105650008333333  0.7500000000000000
  0.6980363330000000  0.7534126640000000  0.4166666666666667
  0.1980363330000000  0.9200793306666666  0.2500000000000000
  0.3830041686666667  0.2105650008333333  0.7500000000000000
  0.3647029996666667  0.2534126640000000  0.7500000000000000
  0.6980363330000000  0.4200793306666666  0.7500000000000000
  0.2163375020000000  0.8772316675000000  0.2500000000000000
  0.7836624980000000  0.3772316675000000  0.9166666666666666
  0.3830041686666667  0.2105650008333333  0.4166666666666667
  0.4503291646666667  0.2105650008333333  0.4166666666666667
  0.4686303336666667  0.2534126640000000  0.4166666666666667
  0.6980363330000000  0.5867459973333333  0.2500000000000000
  0.4166666666666667  0.2826246620000000  0.0833333333333333
  0.8019636670000000  0.7534126640000000  0.2500000000000000
  0.7836624980000000  0.7105650008333334  0.2500000000000000
  0.4686303336666667  0.2534126640000000  0.0833333333333333
  0.4503291646666667  0.2105650008333333  0.0833333333333333
  0.3830041686666667  0.2105650008333333  0.0833333333333333
  0.3647029996666667  0.2534126640000000  0.0833333333333333
  0.7163375019999999  0.7105650008333334  0.2500000000000000
  0.1980363330000000  0.9200793306666666  0.5833333333333334
  0.7163375019999999  0.5438983341666667  0.2500000000000000
  0.7836624980000000  0.5438983341666667  0.2500000000000000
  0.8019636670000000  0.5867459973333333  0.2500000000000000
  0.7500000000000000  0.6159579953333334  0.2500000000000000
  0.2163375020000000  0.8772316675000000  0.5833333333333334
  0.2836624980000000  0.8772316675000000  0.5833333333333334
  0.4166666666666667  0.2826246620000000  0.2500000000000000
  0.4686303336666667  0.2534126640000000  0.2500000000000000
  0.4503291646666667  0.2105650008333333  0.2500000000000000
  0.3830041686666667  0.2105650008333333  0.2500000000000000
  0.3647029996666667  0.2534126640000000  0.2500000000000000
  0.3019636670000000  0.9200793306666666  0.5833333333333334
  0.2500000000000000  0.9492913286666665  0.5833333333333334
  0.6980363330000000  0.5867459973333333  0.0833333333333333
  0.7163375019999999  0.5438983341666667  0.0833333333333333
  0.6980363330000000  0.7534126640000000  0.2500000000000000
  0.7836624980000000  0.5438983341666667  0.0833333333333333
  0.8019636670000000  0.5867459973333333  0.0833333333333333
  0.4166666666666667  0.2826246620000000  0.4166666666666667
  0.2500000000000000  0.9492913286666665  0.7500000000000000
  0.4686303336666667  0.0867459973333333  0.9166666666666666
  0.3830041686666667  0.7105650008333334  0.0833333333333333
  0.4686303336666667  0.5867459973333333  0.2500000000000000
  0.6352970003333333  0.2534126640000000  0.5833333333333334
  0.5833333333333334  0.2826246620000000  0.5833333333333334
  0.5313696663333333  0.7534126640000000  0.9166666666666666
  0.5833333333333334  0.9492913286666665  0.0833333333333333
  0.5313696663333333  0.2534126640000000  0.4166666666666667
  0.5496708353333333  0.2105650008333333  0.4166666666666667
  0.6169958313333334  0.2105650008333333  0.4166666666666667
  0.6169958313333334  0.2105650008333333  0.5833333333333334
  0.6352970003333333  0.2534126640000000  0.4166666666666667
  0.6352970003333333  0.9200793306666666  0.0833333333333333
  0.6169958313333332  0.8772316675000000  0.0833333333333333
  0.5496708353333332  0.8772316675000000  0.0833333333333333
  0.5313696663333333  0.9200793306666666  0.0833333333333333
  0.5313696663333333  0.2534126640000000  0.2500000000000000
  0.5496708353333333  0.2105650008333333  0.2500000000000000
  0.6169958313333334  0.2105650008333333  0.2500000000000000
  0.5833333333333334  0.2826246620000000  0.4166666666666667
  0.6352970003333333  0.2534126640000000  0.2500000000000000
  0.5496708353333333  0.2105650008333333  0.5833333333333334
  0.5496708353333332  0.7105650008333334  0.9166666666666666
  0.5496708353333333  0.2105650008333333  0.9166666666666666
  0.6169958313333334  0.2105650008333333  0.9166666666666666
  0.6352970003333333  0.2534126640000000  0.9166666666666666
  0.5833333333333334  0.2826246620000000  0.9166666666666666
  0.6352970003333333  0.7534126640000000  0.7500000000000000
  0.6169958313333332  0.7105650008333334  0.7500000000000000
  0.5496708353333332  0.7105650008333334  0.7500000000000000
  0.5313696663333333  0.2534126640000000  0.5833333333333334
  0.5313696663333333  0.7534126640000000  0.7500000000000000
  0.5496708353333333  0.2105650008333333  0.7500000000000000
  0.6169958313333334  0.2105650008333333  0.7500000000000000
  0.6352970003333333  0.2534126640000000  0.7500000000000000
  0.5833333333333334  0.2826246620000000  0.7500000000000000
  0.5833333333333334  0.7826246620000000  0.9166666666666666
  0.6352970003333333  0.7534126640000000  0.9166666666666666
  0.6169958313333332  0.7105650008333334  0.9166666666666666
  0.5313696663333333  0.2534126640000000  0.7500000000000000
  0.5313696663333333  0.2534126640000000  0.9166666666666666
  0.5833333333333334  0.2826246620000000  0.2500000000000000
  0.6352970003333333  0.9200793306666666  0.2500000000000000
  0.6169958313333334  0.0438983341666667  0.7500000000000000