POSCAR_10x10x10_FAPI
 1.0000000000000000
    64.0746021270000057    0.0000000000000000    0.0000000000000000
     0.0000083430000000   62.6562023159999981    0.0000000000000000
     0.0000000000000000    0.0000000000000000   63.3757019040000031
   C   H   I   N  Pb
 1000 5000 3000 2000 1000
Direct
  0.0500001013000000  0.0520579994000000  0.0500000000000000
  0.2500001013000000  0.2520579994000000  0.2500000000000000
  0.8500001012999999  0.5520579994000000  0.2500000000000000
  0.2500001013000000  0.2520579994000000  0.1500000000000000
  0.5500001012999999  0.6520579994000000  0.3500000000000000
  0.8500001012999999  0.5520579994000000  0.3500000000000000
  0.2500001013000000  0.2520579994000000  0.0500000000000000
  0.2500001013000000  0.1520579994000000  0.9500000000000000
  0.8500001012999999  0.5520579994000000  0.4500000000000000
  0.2500001013000000  0.1520579994000000  0.8500000000000000
  0.8500001012999999  0.5520579994000000  0.5499999999999999
  0.2500001013000000  0.2520579994000000  0.3500000000000000
  0.2500001013000000  0.1520579994000000  0.7500000000000000
  0.6500001012999999  0.2520579994000000  0.4500000000000000
  0.8500001012999999  0.5520579994000000  0.6499999999999999
  0.2500001013000000  0.1520579994000000  0.5499999999999999
  0.5500001012999999  0.6520579994000000  0.4500000000000000
  0.8500001012999999  0.5520579994000000  0.7500000000000000
  0.2500001013000000  0.1520579994000000  0.4500000000000000
  0.2500001013000000  0.1520579994000000  0.3500000000000000
  0.8500001012999999  0.5520579994000000  0.8500000000000000
  0.2500001013000000  0.1520579994000000  0.2500000000000000
  0.8500001012999999  0.5520579994000000  0.9500000000000000
  0.2500001013000000  0.1520579994000000  0.6499999999999999
  0.8500001012999999  0.5520579994000000  0.1500000000000000
  0.2500001013000000  0.2520579994000000  0.4500000000000000
  0.8500001012999999  0.5520579994000000  0.0500000000000000
  0.2500001013000000  0.3520579993999999  0.6499999999999999
  0.8500001012999999  0.4520579994000000  0.3500000000000000
  0.2500001013000000  0.3520579993999999  0.5499999999999999
  0.2500001013000000  0.3520579993999999  0.4500000000000000
  0.6500001012999999  0.2520579994000000  0.6499999999999999
  0.8500001012999999  0.4520579994000000  0.4500000000000000
  0.2500001013000000  0.3520579993999999  0.3500000000000000
  0.5500001012999999  0.6520579994000000  0.1500000000000000
  0.8500001012999999  0.4520579994000000  0.5499999999999999
  0.2500001013000000  0.3520579993999999  0.2500000000000000
  0.2500001013000000  0.3520579993999999  0.1500000000000000
  0.8500001012999999  0.4520579994000000  0.6499999999999999
  0.2500001013000000  0.3520579993999999  0.0500000000000000
  0.8500001012999999  0.4520579994000000  0.7500000000000000
  0.2500001013000000  0.2520579994000000  0.9500000000000000
  0.2500001013000000  0.2520579994000000  0.8500000000000000
  0.8500001012999999  0.4520579994000000  0.8500000000000000
  0.2500001013000000  0.2520579994000000  0.7500000000000000
  0.5500001012999999  0.6520579994000000  0.2500000000000000
  0.6500001012999999  0.2520579994000000  0.5499999999999999
  0.8500001012999999  0.4520579994000000  0.9500000000000000
  0.2500001013000000  0.2520579994000000  0.6499999999999999
  0.2500001013000000  0.2520579994000000  0.5499999999999999
  0.2500001013000000  0.1520579994000000  0.1500000000000000
  0.2500001013000000  0.1520579994000000  0.0500000000000000
  0.8500001012999998  0.6520579994000000  0.0500000000000000
  0.2500001013000000  0.0520579994000000  0.9500000000000000
  0.1500001013000000  0.9520579993999998  0.5499999999999999
  0.8500001012999999  0.7520579994000000  0.0500000000000000
  0.1500001013000000  0.9520579993999998  0.4500000000000000
  0.8500001012999999  0.7520579994000000  0.1500000000000000
  0.1500001013000000  0.9520579993999998  0.3500000000000000
  0.1500001013000000  0.9520579993999998  0.2500000000000000
  0.8500001012999999  0.7520579994000000  0.2500000000000000
  0.1500001013000000  0.9520579993999998  0.1500000000000000
  0.5500001012999999  0.6520579994000000  0.8500000000000000
  0.6500001012999999  0.2520579994000000  0.1500000000000000
  0.8500001012999999  0.7520579994000000  0.3500000000000000
  0.1500001013000000  0.9520579993999998  0.0500000000000000
  0.1500001013000000  0.8520579993999999  0.9500000000000000
  0.8500001012999999  0.7520579994000000  0.4500000000000000
  0.1500001013000000  0.8520579993999999  0.8500000000000000
  0.8500001012999999  0.7520579994000000  0.5499999999999999
  0.1500001013000000  0.8520579993999999  0.7500000000000000
  0.1500001013000000  0.8520579993999999  0.6499999999999999
  0.8500001012999999  0.7520579994000000  0.6499999999999999
  0.1500001013000000  0.8520579993999999  0.5499999999999999
  0.5500001012999999  0.6520579994000000  0.9500000000000000
  0.8500001012999999  0.7520579994000000  0.7500000000000000
  0.1500001013000000  0.8520579993999999  0.4500000000000000
  0.1500001013000000  0.9520579993999998  0.6499999999999999
  0.8500001012999999  0.4520579994000000  0.2500000000000000
  0.8500001012999998  0.6520579994000000  0.9500000000000000
  0.1500001013000000  0.9520579993999998  0.7500000000000000
  0.5500001012999999  0.6520579994000000  0.5499999999999999
  0.6500001012999999  0.2520579994000000  0.3500000000000000
  0.8500001012999998  0.6520579994000000  0.1500000000000000
  0.2500001013000000  0.0520579994000000  0.8500000000000000
  0.2500001013000000  0.0520579994000000  0.7500000000000000
  0.8500001012999998  0.6520579994000000  0.2500000000000000
  0.2500001013000000  0.0520579994000000  0.6499999999999999
  0.8500001012999998  0.6520579994000000  0.3500000000000000
  0.2500001013000000  0.0520579994000000  0.5499999999999999
  0.2500001013000000  0.0520579994000000  0.4500000000000000
  0.8500001012999998  0.6520579994000000  0.4500000000000000
  0.2500001013000000  0.0520579994000000  0.3500000000000000
  0.5500001012999999  0.6520579994000000  0.6499999999999999
  0.8500001012999998  0.6520579994000000  0.5499999999999999
  0.2500001013000000  0.0520579994000000  0.2500000000000000
  0.2500001013000000  0.0520579994000000  0.1500000000000000
  0.8500001012999998  0.6520579994000000  0.6499999999999999
  0.2500001013000000  0.0520579994000000  0.0500000000000000
  0.8500001012999998  0.6520579994000000  0.7500000000000000
  0.1500001013000000  0.9520579993999998  0.9500000000000000
  0.1500001013000000  0.9520579993999998  0.8500000000000000
  0.6500001012999999  0.2520579994000000  0.2500000000000000
  0.8500001012999998  0.6520579994000000  0.8500000000000000
  0.5500001012999999  0.6520579994000000  0.7500000000000000
  0.2500001013000000  0.3520579993999999  0.7500000000000000
  0.2500001013000000  0.3520579993999999  0.8500000000000000
  0.8500001012999999  0.4520579994000000  0.1500000000000000
  0.2500001013000000  0.7520579994000000  0.8500000000000000
  0.8500001012999999  0.1520579994000000  0.5499999999999999
  0.2500001013000000  0.7520579994000000  0.7500000000000000
  0.2500001013000000  0.7520579994000000  0.6499999999999999
  0.8500001012999999  0.1520579994000000  0.6499999999999999
  0.2500001013000000  0.7520579994000000  0.5499999999999999
  0.5500001013000000  0.5520579994000000  0.4500000000000000
  0.8500001012999999  0.1520579994000000  0.7500000000000000
  0.2500001013000000  0.7520579994000000  0.4500000000000000
  0.2500001013000000  0.7520579994000000  0.3500000000000000
  0.8500001012999999  0.1520579994000000  0.8500000000000000
  0.2500001013000000  0.7520579994000000  0.2500000000000000
  0.8500001012999999  0.1520579994000000  0.9500000000000000
  0.2500001013000000  0.7520579994000000  0.1500000000000000
  0.2500001013000000  0.7520579994000000  0.0500000000000000
  0.6500001012999999  0.3520579993999999  0.0500000000000000
  0.8500001012999999  0.2520579994000000  0.0500000000000000
  0.2500001013000000  0.6520579994000000  0.9500000000000000
  0.5500001013000000  0.5520579994000000  0.5499999999999999
  0.8500001012999999  0.2520579994000000  0.1500000000000000
  0.2500001013000000  0.6520579994000000  0.8500000000000000
  0.2500001013000000  0.6520579994000000  0.7500000000000000
  0.8500001012999999  0.2520579994000000  0.2500000000000000
  0.8500001012999999  0.1520579994000000  0.4500000000000000
  0.2500001013000000  0.6520579994000000  0.6499999999999999
  0.2500001013000000  0.7520579994000000  0.9500000000000000
  0.8500001012999999  0.1520579994000000  0.3500000000000000
  0.2500001013000000  0.9520579993999998  0.2500000000000000
  0.2500001013000000  0.9520579993999998  0.1500000000000000
  0.8500001012999999  0.0520579994000000  0.6499999999999999
  0.2500001013000000  0.9520579993999998  0.0500000000000000
  0.8500001012999999  0.0520579994000000  0.7500000000000000
  0.2500001013000000  0.8520579993999999  0.9500000000000000
  0.2500001013000000  0.8520579993999999  0.8500000000000000
  0.6500001012999999  0.3520579993999999  0.2500000000000000
  0.8500001012999999  0.0520579994000000  0.8500000000000000
  0.2500001013000000  0.8520579993999999  0.7500000000000000
  0.5500001013000000  0.5520579994000000  0.2500000000000000
  0.8500001012999999  0.0520579994000000  0.9500000000000000
  0.2500001013000000  0.8520579993999999  0.6499999999999999
  0.2500001013000000  0.8520579993999999  0.5499999999999999
  0.8500001012999999  0.1520579994000000  0.0500000000000000
  0.2500001013000000  0.8520579993999999  0.4500000000000000
  0.8500001012999999  0.1520579994000000  0.1500000000000000
  0.2500001013000000  0.8520579993999999  0.3500000000000000
  0.2500001013000000  0.8520579993999999  0.2500000000000000
  0.8500001012999999  0.1520579994000000  0.2500000000000000
  0.2500001013000000  0.8520579993999999  0.1500000000000000
  0.5500001013000000  0.5520579994000000  0.3500000000000000
  0.6500001012999999  0.3520579993999999  0.1500000000000000
  0.2500001013000000  0.8520579993999999  0.0500000000000000
  0.1500001013000000  0.8520579993999999  0.3500000000000000
  0.8500001012999999  0.2520579994000000  0.3500000000000000
  0.2500001013000000  0.6520579994000000  0.4500000000000000
  0.8500001012999999  0.3520579993999999  0.3500000000000000
  0.2500001013000000  0.5520579994000000  0.0500000000000000
  0.2500001013000000  0.4520579994000000  0.9500000000000000
  0.8500001012999999  0.3520579993999999  0.4500000000000000
  0.2500001013000000  0.4520579994000000  0.8500000000000000
  0.8500001012999999  0.3520579993999999  0.5499999999999999
  0.2500001013000000  0.4520579994000000  0.7500000000000000
  0.2500001013000000  0.4520579994000000  0.6499999999999999
  0.8500001012999999  0.3520579993999999  0.6499999999999999
  0.2500001013000000  0.4520579994000000  0.5499999999999999
  0.5500001013000000  0.5520579994000000  0.9500000000000000
  0.6500001012999999  0.2520579994000000  0.7500000000000000
  0.8500001012999999  0.3520579993999999  0.7500000000000000
  0.2500001013000000  0.4520579994000000  0.4500000000000000
  0.2500001013000000  0.4520579994000000  0.3500000000000000
  0.8500001012999999  0.3520579993999999  0.8500000000000000
  0.2500001013000000  0.4520579994000000  0.2500000000000000
  0.8500001012999999  0.3520579993999999  0.9500000000000000
  0.2500001013000000  0.4520579994000000  0.1500000000000000
  0.2500001013000000  0.4520579994000000  0.0500000000000000
  0.8500001012999999  0.4520579994000000  0.0500000000000000
  0.2500001013000000  0.3520579993999999  0.9500000000000000
  0.5500001012999999  0.6520579994000000  0.0500000000000000
  0.5500001013000000  0.5520579994000000  0.8500000000000000
  0.2500001013000000  0.6520579994000000  0.5499999999999999
  0.2500001013000000  0.5520579994000000  0.1500000000000000
  0.6500001012999999  0.2520579994000000  0.8500000000000000
  0.8500001012999999  0.2520579994000000  0.4500000000000000
  0.2500001013000000  0.6520579994000000  0.3500000000000000
  0.5500001013000000  0.5520579994000000  0.6499999999999999
  0.6500001012999999  0.2520579994000000  0.9500000000000000
  0.8500001012999999  0.2520579994000000  0.5499999999999999
  0.2500001013000000  0.6520579994000000  0.2500000000000000
  0.2500001013000000  0.6520579994000000  0.1500000000000000
  0.8500001012999999  0.2520579994000000  0.6499999999999999
  0.2500001013000000  0.6520579994000000  0.0500000000000000
  0.8500001012999999  0.2520579994000000  0.7500000000000000
  0.2500001013000000  0.5520579994000000  0.9500000000000000
  0.2500001013000000  0.5520579994000000  0.8500000000000000
  0.8500001012999999  0.2520579994000000  0.8500000000000000
  0.5500001013000000  0.1520579994000000  0.4500000000000000
  0.5500001013000000  0.5520579994000000  0.7500000000000000
  0.8500001012999999  0.2520579994000000  0.9500000000000000
  0.2500001013000000  0.5520579994000000  0.6499999999999999
  0.2500001013000000  0.5520579994000000  0.5499999999999999
  0.8500001012999999  0.3520579993999999  0.0500000000000000
  0.2500001013000000  0.5520579994000000  0.4500000000000000
  0.8500001012999999  0.3520579993999999  0.1500000000000000
  0.2500001013000000  0.5520579994000000  0.3500000000000000
  0.2500001013000000  0.5520579994000000  0.2500000000000000
  0.8500001012999999  0.3520579993999999  0.2500000000000000
  0.8500001012999999  0.7520579994000000  0.8500000000000000
  0.1500001013000000  0.8520579993999999  0.2500000000000000
  0.8500001012999999  0.7520579994000000  0.9500000000000000
  0.1500001013000000  0.1520579994000000  0.2500000000000000
  0.1500001013000000  0.1520579994000000  0.1500000000000000
  0.9500001013000000  0.2520579994000000  0.6499999999999999
  0.1500001013000000  0.1520579994000000  0.0500000000000000
  0.9500001013000000  0.2520579994000000  0.7500000000000000
  0.1500001013000000  0.0520579994000000  0.9500000000000000
  0.1500001013000000  0.0520579994000000  0.8500000000000000
  0.6500001012999999  0.1520579994000000  0.2500000000000000
  0.9500001013000000  0.2520579994000000  0.8500000000000000
  0.1500001013000000  0.0520579994000000  0.7500000000000000
  0.5500001012999999  0.8520579993999999  0.2500000000000000
  0.9500001013000000  0.2520579994000000  0.9500000000000000
  0.1500001013000000  0.0520579994000000  0.6499999999999999
  0.1500001013000000  0.0520579994000000  0.5499999999999999
  0.9500001013000000  0.3520579993999999  0.0500000000000000
  0.1500001013000000  0.0520579994000000  0.4500000000000000
  0.9500001013000000  0.3520579993999999  0.1500000000000000
  0.1500001013000000  0.0520579994000000  0.3500000000000000
  0.1500001013000000  0.0520579994000000  0.2500000000000000
  0.9500001013000000  0.3520579993999999  0.2500000000000000
  0.1500001013000000  0.0520579994000000  0.1500000000000000
  0.5500001012999999  0.8520579993999999  0.3500000000000000
  0.6500001012999999  0.1520579994000000  0.1500000000000000
  0.9500001013000000  0.2520579994000000  0.5499999999999999
  0.9500001013000000  0.3520579993999999  0.3500000000000000
  0.5500001012999999  0.8520579993999999  0.1500000000000000
  0.9500001013000000  0.2520579994000000  0.4500000000000000
  0.9500001013000000  0.1520579994000000  0.6499999999999999
  0.1500001013000000  0.2520579994000000  0.5499999999999999
  0.5500001013000000  0.7520579994000000  0.9500000000000000
  0.9500001013000000  0.1520579994000000  0.7500000000000000
  0.1500001013000000  0.2520579994000000  0.4500000000000000
  0.1500001013000000  0.2520579994000000  0.3500000000000000
  0.9500001013000000  0.1520579994000000  0.8500000000000000
  0.1500001013000000  0.2520579994000000  0.2500000000000000
  0.9500001013000000  0.1520579994000000  0.9500000000000000
  0.1500001013000000  0.2520579994000000  0.1500000000000000
  0.1500001013000000  0.2520579994000000  0.0500000000000000
  0.9500001013000000  0.2520579994000000  0.0500000000000000
  0.1500001013000000  0.1520579994000000  0.9500000000000000
  0.5500001012999999  0.8520579993999999  0.0500000000000000
  0.6500001012999999  0.1520579994000000  0.3500000000000000
  0.9500001013000000  0.2520579994000000  0.1500000000000000
  0.1500001013000000  0.1520579994000000  0.8500000000000000
  0.1500001013000000  0.1520579994000000  0.7500000000000000
  0.9500001013000000  0.2520579994000000  0.2500000000000000
  0.1500001013000000  0.1520579994000000  0.6499999999999999
  0.9500001013000000  0.2520579994000000  0.3500000000000000
  0.1500001013000000  0.1520579994000000  0.5499999999999999
  0.1500001013000000  0.1520579994000000  0.4500000000000000
  0.1500001013000000  0.1520579994000000  0.3500000000000000
  0.6500001012999999  0.1520579994000000  0.4500000000000000
  0.1500001013000000  0.0520579994000000  0.0500000000000000
  0.9500001013000000  0.3520579993999999  0.4500000000000000
  0.9500001013000000  0.4520579994000000  0.4500000000000000
  0.0500001013000000  0.8520579993999999  0.3500000000000000
  0.5500001012999999  0.8520579993999999  0.6499999999999999
  0.6500001012999999  0.0520579994000000  0.9500000000000000
  0.9500001013000000  0.4520579994000000  0.5499999999999999
  0.0500001013000000  0.8520579993999999  0.2500000000000000
  0.0500001013000000  0.8520579993999999  0.1500000000000000
  0.9500001013000000  0.4520579994000000  0.6499999999999999
  0.0500001013000000  0.8520579993999999  0.0500000000000000
  0.9500001013000000  0.4520579994000000  0.7500000000000000
  0.0500001013000000  0.7520579994000000  0.9500000000000000
  0.0500001013000000  0.7520579994000000  0.8500000000000000
  0.9500001013000000  0.4520579994000000  0.8500000000000000
  0.0500001013000000  0.7520579994000000  0.7500000000000000
  0.5500001012999999  0.8520579993999999  0.7500000000000000
  0.9500001013000000  0.4520579994000000  0.9500000000000000
  0.0500001013000000  0.7520579994000000  0.6499999999999999
  0.0500001013000000  0.7520579994000000  0.5499999999999999
  0.9500001013000000  0.5520579994000000  0.0500000000000000
  0.0500001013000000  0.7520579994000000  0.4500000000000000
  0.9500001013000000  0.5520579994000000  0.1500000000000000
  0.0500001013000000  0.7520579994000000  0.3500000000000000
  0.0500001013000000  0.7520579994000000  0.2500000000000000
  0.0500001013000000  0.8520579993999999  0.4500000000000000
  0.0500001013000000  0.9520579993999998  0.9500000000000000
  0.0500001013000000  0.8520579993999999  0.5499999999999999
  0.0500001013000000  0.8520579993999999  0.6499999999999999
  0.0500001013000000  0.9520579993999998  0.8500000000000000
  0.9500001013000000  0.3520579993999999  0.5499999999999999
  0.0500001013000000  0.9520579993999998  0.7500000000000000
  0.0500001013000000  0.9520579993999998  0.6499999999999999
  0.9500001013000000  0.3520579993999999  0.6499999999999999
  0.0500001013000000  0.9520579993999998  0.5499999999999999
  0.5500001012999999  0.8520579993999999  0.4500000000000000
  0.9500001013000000  0.3520579993999999  0.7500000000000000
  0.0500001013000000  0.9520579993999998  0.4500000000000000
  0.0500001013000000  0.9520579993999998  0.3500000000000000
  0.9500001013000000  0.3520579993999999  0.8500000000000000
  0.0500001013000000  0.9520579993999998  0.2500000000000000
  0.9500001013000000  0.3520579993999999  0.9500000000000000
  0.0500001013000000  0.9520579993999998  0.1500000000000000
  0.0500001013000000  0.9520579993999998  0.0500000000000000
  0.6500001012999999  0.1520579994000000  0.0500000000000000
  0.9500001013000000  0.4520579994000000  0.0500000000000000
  0.0500001013000000  0.8520579993999999  0.9500000000000000
  0.5500001012999999  0.8520579993999999  0.5499999999999999
  0.9500001013000000  0.4520579994000000  0.1500000000000000
  0.0500001013000000  0.8520579993999999  0.8500000000000000
  0.0500001013000000  0.8520579993999999  0.7500000000000000
  0.9500001013000000  0.4520579994000000  0.2500000000000000
  0.9500001013000000  0.4520579994000000  0.3500000000000000
  0.8500001012999999  0.0520579994000000  0.5499999999999999
  0.1500001013000000  0.2520579994000000  0.6499999999999999
  0.9500001013000000  0.1520579994000000  0.5499999999999999
  0.1500001013000000  0.6520579994000000  0.7500000000000000
  0.5500001013000000  0.7520579994000000  0.2500000000000000
  0.8500001012999998  0.8520579993999999  0.9500000000000000
  0.1500001013000000  0.6520579994000000  0.6499999999999999
  0.1500001013000000  0.6520579994000000  0.5499999999999999
  0.8500001012999999  0.9520579993999998  0.0500000000000000
  0.1500001013000000  0.6520579994000000  0.4500000000000000
  0.8500001012999999  0.9520579993999998  0.1500000000000000
  0.1500001013000000  0.6520579994000000  0.3500000000000000
  0.1500001013000000  0.6520579994000000  0.2500000000000000
  0.6500001012999999  0.1520579994000000  0.8500000000000000
  0.8500001012999999  0.9520579993999998  0.2500000000000000
  0.1500001013000000  0.6520579994000000  0.1500000000000000
  0.5500001013000000  0.7520579994000000  0.3500000000000000
  0.8500001012999999  0.9520579993999998  0.3500000000000000
  0.1500001013000000  0.6520579994000000  0.0500000000000000
  0.1500001013000000  0.5520579994000000  0.9500000000000000
  0.8500001012999999  0.9520579993999998  0.4500000000000000
  0.1500001013000000  0.5520579994000000  0.8500000000000000
  0.8500001012999999  0.9520579993999998  0.5499999999999999
  0.1500001013000000  0.5520579994000000  0.7500000000000000
  0.1500001013000000  0.5520579994000000  0.6499999999999999
  0.8500001012999999  0.9520579993999998  0.6499999999999999
  0.8500001012999998  0.8520579993999999  0.8500000000000000
  0.1500001013000000  0.5520579994000000  0.5499999999999999
  0.1500001013000000  0.6520579994000000  0.8500000000000000
  0.8500001012999998  0.8520579993999999  0.7500000000000000
  0.1500001013000000  0.8520579993999999  0.1500000000000000
  0.1500001013000000  0.8520579993999999  0.0500000000000000
  0.6500001012999999  0.2520579994000000  0.0500000000000000
  0.8500001012999998  0.8520579993999999  0.0500000000000000
  0.1500001013000000  0.7520579994000000  0.9500000000000000
  0.5500001013000000  0.7520579994000000  0.0500000000000000
  0.8500001012999998  0.8520579993999999  0.1500000000000000
  0.1500001013000000  0.7520579994000000  0.8500000000000000
  0.1500001013000000  0.7520579994000000  0.7500000000000000
  0.8500001012999998  0.8520579993999999  0.2500000000000000
  0.1500001013000000  0.7520579994000000  0.6499999999999999
  0.8500001012999998  0.8520579993999999  0.3500000000000000
  0.1500001013000000  0.7520579994000000  0.5499999999999999
  0.1500001013000000  0.7520579994000000  0.4500000000000000
  0.8500001012999998  0.8520579993999999  0.4500000000000000
  0.1500001013000000  0.7520579994000000  0.3500000000000000
  0.5500001013000000  0.7520579994000000  0.1500000000000000
  0.6500001012999999  0.1520579994000000  0.9500000000000000
  0.8500001012999998  0.8520579993999999  0.5499999999999999
  0.1500001013000000  0.7520579994000000  0.2500000000000000
  0.1500001013000000  0.7520579994000000  0.1500000000000000
  0.8500001012999998  0.8520579993999999  0.6499999999999999
  0.1500001013000000  0.7520579994000000  0.0500000000000000
  0.1500001013000000  0.6520579994000000  0.9500000000000000
  0.1500001013000000  0.2520579994000000  0.7500000000000000
  0.5500001013000000  0.7520579994000000  0.4500000000000000
  0.8500001012999999  0.9520579993999998  0.7500000000000000
  0.9500001013000000  0.0520579994000000  0.7500000000000000
  0.1500001013000000  0.3520579993999999  0.9500000000000000
  0.1500001013000000  0.3520579993999999  0.8500000000000000
  0.9500001013000000  0.0520579994000000  0.8500000000000000
  0.1500001013000000  0.3520579993999999  0.7500000000000000
  0.5500001013000000  0.7520579994000000  0.7500000000000000
  0.6500001012999999  0.1520579994000000  0.5499999999999999
  0.9500001013000000  0.0520579994000000  0.9500000000000000
  0.1500001013000000  0.3520579993999999  0.6499999999999999
  0.1500001013000000  0.3520579993999999  0.5499999999999999
  0.9500001013000000  0.1520579994000000  0.0500000000000000
  0.1500001013000000  0.3520579993999999  0.4500000000000000
  0.9500001013000000  0.1520579994000000  0.1500000000000000
  0.1500001013000000  0.3520579993999999  0.3500000000000000
  0.1500001013000000  0.3520579993999999  0.2500000000000000
  0.9500001013000000  0.1520579994000000  0.2500000000000000
  0.1500001013000000  0.3520579993999999  0.1500000000000000
  0.5500001013000000  0.7520579994000000  0.8500000000000000
  0.9500001013000000  0.1520579994000000  0.3500000000000000
  0.1500001013000000  0.3520579993999999  0.0500000000000000
  0.1500001013000000  0.2520579994000000  0.9500000000000000
  0.9500001013000000  0.1520579994000000  0.4500000000000000
  0.1500001013000000  0.2520579994000000  0.8500000000000000
  0.1500001013000000  0.4520579994000000  0.0500000000000000
  0.6500001012999999  0.1520579994000000  0.7500000000000000
  0.9500001013000000  0.0520579994000000  0.6499999999999999
  0.1500001013000000  0.4520579994000000  0.2500000000000000
  0.1500001013000000  0.5520579994000000  0.4500000000000000
  0.1500001013000000  0.5520579994000000  0.3500000000000000
  0.8500001012999999  0.9520579993999998  0.8500000000000000
  0.1500001013000000  0.5520579994000000  0.2500000000000000
  0.8500001012999999  0.9520579993999998  0.9500000000000000
  0.1500001013000000  0.5520579994000000  0.1500000000000000
  0.1500001013000000  0.5520579994000000  0.0500000000000000
  0.9500001013000000  0.0520579994000000  0.0500000000000000
  0.1500001013000000  0.4520579994000000  0.9500000000000000
  0.5500001013000000  0.7520579994000000  0.5499999999999999
  0.9500001013000000  0.0520579994000000  0.1500000000000000
  0.1500001013000000  0.4520579994000000  0.8500000000000000
  0.1500001013000000  0.4520579994000000  0.7500000000000000
  0.9500001013000000  0.0520579994000000  0.2500000000000000
  0.1500001013000000  0.4520579994000000  0.6499999999999999
  0.9500001013000000  0.0520579994000000  0.3500000000000000
  0.1500001013000000  0.4520579994000000  0.5499999999999999
  0.1500001013000000  0.4520579994000000  0.4500000000000000
  0.6500001012999999  0.1520579994000000  0.6499999999999999
  0.9500001013000000  0.0520579994000000  0.4500000000000000
  0.1500001013000000  0.4520579994000000  0.3500000000000000
  0.5500001013000000  0.7520579994000000  0.6499999999999999
  0.9500001013000000  0.0520579994000000  0.5499999999999999
  0.1500001013000000  0.4520579994000000  0.1500000000000000
  0.6500001012999999  0.0520579994000000  0.8500000000000000
  0.5500001013000000  0.5520579994000000  0.1500000000000000
  0.8500001012999999  0.0520579994000000  0.4500000000000000
  0.4500001013000000  0.4520579994000000  0.3500000000000000
  0.5500001013000000  0.2520579994000000  0.6499999999999999
  0.6500001012999999  0.4520579994000000  0.9500000000000000
  0.7500001012999999  0.0520579994000000  0.5499999999999999
  0.4500001013000000  0.4520579994000000  0.2500000000000000
  0.4500001013000000  0.4520579994000000  0.1500000000000000
  0.7500001012999999  0.0520579994000000  0.6499999999999999
  0.4500001013000000  0.4520579994000000  0.0500000000000000
  0.7500001012999999  0.0520579994000000  0.7500000000000000
  0.4500001013000000  0.3520579993999999  0.9500000000000000
  0.7500001012999999  0.0520579994000000  0.4500000000000000
  0.4500001013000000  0.3520579993999999  0.8500000000000000
  0.4500001013000000  0.3520579993999999  0.7500000000000000
  0.5500001013000000  0.2520579994000000  0.7500000000000000
  0.7500001012999999  0.0520579994000000  0.9500000000000000
  0.4500001013000000  0.3520579993999999  0.6499999999999999
  0.4500001013000000  0.3520579993999999  0.5499999999999999
  0.7500001012999999  0.1520579994000000  0.0500000000000000
  0.4500001013000000  0.3520579993999999  0.4500000000000000
  0.7500001012999999  0.1520579994000000  0.1500000000000000
  0.4500001013000000  0.3520579993999999  0.3500000000000000
  0.6500001012999999  0.4520579994000000  0.8500000000000000
  0.7500001012999999  0.0520579994000000  0.8500000000000000
  0.4500001013000000  0.4520579994000000  0.4500000000000000
  0.4500001013000000  0.4520579994000000  0.5499999999999999
  0.7500001012999999  0.0520579994000000  0.3500000000000000
  0.6500001012999999  0.9520579993999998  0.5499999999999999
  0.4500001013000000  0.5520579994000000  0.7500000000000000
  0.4500001013000000  0.5520579994000000  0.6499999999999999
  0.6500001012999999  0.9520579993999998  0.6499999999999999
  0.4500001013000000  0.5520579994000000  0.5499999999999999
  0.5500001013000000  0.2520579994000000  0.4500000000000000
  0.6500001012999999  0.9520579993999998  0.7500000000000000
  0.4500001013000000  0.5520579994000000  0.4500000000000000
  0.4500001013000000  0.5520579994000000  0.3500000000000000
  0.6500001012999999  0.9520579993999998  0.8500000000000000
  0.4500001013000000  0.5520579994000000  0.2500000000000000
  0.6500001012999999  0.9520579993999998  0.9500000000000000
  0.4500001013000000  0.5520579994000000  0.1500000000000000
  0.6500001012999999  0.5520579994000000  0.0500000000000000
  0.4500001013000000  0.5520579994000000  0.0500000000000000
  0.7500001012999999  0.0520579994000000  0.0500000000000000
  0.4500001013000000  0.4520579994000000  0.9500000000000000
  0.5500001013000000  0.2520579994000000  0.5499999999999999
  0.7500001012999999  0.0520579994000000  0.1500000000000000
  0.4500001013000000  0.4520579994000000  0.8500000000000000
  0.4500001013000000  0.4520579994000000  0.7500000000000000
  0.7500001012999999  0.0520579994000000  0.2500000000000000
  0.4500001013000000  0.4520579994000000  0.6499999999999999
  0.4500001013000000  0.3520579993999999  0.2500000000000000
  0.7500001012999999  0.1520579994000000  0.2500000000000000
  0.4500001013000000  0.3520579993999999  0.1500000000000000
  0.5500001013000000  0.2520579994000000  0.8500000000000000
  0.4500001013000000  0.1520579994000000  0.6499999999999999