POSCAR_2x2x2_FAPI
 1.0000000000000000
    12.8149204254000004    0.0000000000000000    0.0000000000000000
     0.0000016686000000   12.5312404631999996    0.0000000000000000
     0.0000000000000000    0.0000000000000000   12.6751403808000003
   C   H   I   N  Pb
   8  40  24  16   8
Direct
  0.2500005065000000  0.2602899970000000  0.2500000000000000
  0.2500005065000000  0.7602899969999999  0.2500000000000000
  0.7500005064999999  0.7602899969999999  0.2500000000000000
  0.2500005065000000  0.7602899969999999  0.7500000000000000
  0.2500005065000000  0.2602899970000000  0.7500000000000000
  0.7500005064999999  0.2602899970000000  0.2500000000000000
  0.7500005064999999  0.7602899969999999  0.7500000000000000
  0.7500005064999999  0.2602899970000000  0.7500000000000000
  0.7499999999999999  0.3478739860000000  0.7500000000000000
  0.6490125059999999  0.1316950025000000  0.2500000000000000
  0.1490125060000000  0.6316950025000000  0.2500000000000000
  0.0941089990000000  0.7602379919999999  0.2500000000000000
  0.7499999999999999  0.8478739860000001  0.2500000000000000
  0.8509874940000000  0.1316950025000000  0.2500000000000000
  0.9058910010000000  0.2602379920000000  0.2500000000000000
  0.5941089990000000  0.2602379920000000  0.7500000000000000
  0.2500000000000001  0.8478739860000001  0.7500000000000000
  0.4058910010000000  0.7602379919999999  0.7500000000000000
  0.1490125060000000  0.6316950025000000  0.7500000000000000
  0.3509874940000000  0.6316950025000000  0.2500000000000000
  0.7499999999999999  0.3478739860000000  0.2500000000000000
  0.0941089990000000  0.7602379919999999  0.7500000000000000
  0.6490125059999999  0.1316950025000000  0.7500000000000000
  0.8509874940000000  0.1316950025000000  0.7500000000000000
  0.9058910010000000  0.2602379920000000  0.7500000000000000
  0.3509874940000000  0.6316950025000000  0.7500000000000000
  0.5941089990000000  0.2602379920000000  0.2500000000000000
  0.4058910010000000  0.7602379919999999  0.2500000000000000
  0.9058910010000000  0.7602379919999999  0.2500000000000000
  0.0941089990000000  0.2602379920000000  0.2500000000000000
  0.6490125059999999  0.6316950025000000  0.7500000000000000
  0.8509874940000000  0.6316950025000000  0.7500000000000000
  0.9058910010000000  0.7602379919999999  0.7500000000000000
  0.7499999999999999  0.8478739860000001  0.7500000000000000
  0.2500000000000001  0.8478739860000001  0.2500000000000000
  0.2500000000000000  0.3478739860000000  0.7500000000000000
  0.4058910010000000  0.2602379920000000  0.7500000000000000
  0.3509874940000000  0.1316950025000000  0.7500000000000000
  0.1490125060000000  0.1316950025000000  0.7500000000000000
  0.0941089990000000  0.2602379920000000  0.7500000000000000
  0.4058910010000000  0.2602379920000000  0.2500000000000000
  0.2500000000000000  0.3478739860000000  0.2500000000000000
  0.5941089990000000  0.7602379919999999  0.7500000000000000
  0.5941089990000000  0.7602379919999999  0.2500000000000000
  0.6490125059999999  0.6316950025000000  0.2500000000000000
  0.8509874940000000  0.6316950025000000  0.2500000000000000
  0.1490125060000000  0.1316950025000000  0.2500000000000000
  0.3509874940000000  0.1316950025000000  0.2500000000000000
  0.5000000000000000  0.4598515035000000  0.2500000000000000
  0.7499999999999999  0.9922085104999999  0.5000000000000000
  0.5000000000000000  0.9598515034999999  0.2500000000000000
  0.5000000000000000  0.2314739970000000  0.5000000000000000
  0.5000000000000000  0.4598515035000000  0.7500000000000000
  0.5000000000000000  0.7314739970000000  0.0000000000000000
  0.7499999999999999  0.9922085104999999  0.0000000000000000
  0.7499999999999999  0.4922085104999999  0.5000000000000000
  0.5000000000000000  0.2314739970000000  0.0000000000000000
  0.0000000000000000  0.9598515034999999  0.7500000000000000
  0.5000000000000000  0.9598515034999999  0.7500000000000000
  0.0000000000000000  0.2314739970000000  0.5000000000000000
  0.2500000000000000  0.4922085104999999  0.5000000000000000
  0.2500000000000001  0.9922085104999999  0.0000000000000000
  0.0000000000000000  0.7314739970000000  0.0000000000000000
  0.0000000000000000  0.9598515034999999  0.2500000000000000
  0.7499999999999999  0.4922085104999999  0.0000000000000000
  0.0000000000000000  0.4598515035000000  0.2500000000000000
  0.0000000000000000  0.4598515035000000  0.7500000000000000
  0.0000000000000000  0.7314739970000000  0.5000000000000000
  0.5000000000000000  0.7314739970000000  0.5000000000000000
  0.0000000000000000  0.2314739970000000  0.0000000000000000
  0.2500000000000000  0.4922085104999999  0.0000000000000000
  0.2500000000000001  0.9922085104999999  0.5000000000000000
  0.8408715130000001  0.7128649950000001  0.7500000000000000
  0.3408715130000000  0.2128649950000000  0.7500000000000000
  0.1591275035000000  0.2128649950000000  0.7500000000000000
  0.1591275035000000  0.2128649950000000  0.2500000000000000
  0.3408715130000000  0.2128649950000000  0.2500000000000000
  0.6591275035000000  0.7128649950000001  0.7500000000000000
  0.1591275035000000  0.7128649950000001  0.2500000000000000
  0.6591275035000000  0.2128649950000000  0.2500000000000000
  0.6591275035000000  0.7128649950000001  0.2500000000000000
  0.8408715130000001  0.7128649950000001  0.2500000000000000
  0.3408715130000000  0.7128649950000001  0.7500000000000000
  0.8408715130000001  0.2128649950000000  0.2500000000000000
  0.1591275035000000  0.7128649950000001  0.7500000000000000
  0.3408715130000000  0.7128649950000001  0.2500000000000000
  0.6591275035000000  0.2128649950000000  0.7500000000000000
  0.8408715130000001  0.2128649950000000  0.7500000000000000
  0.0000000000000000  0.9829635025000000  0.0000000000000000
  0.4999999999999999  0.9829635025000000  0.5000000000000000
  0.0000000000000000  0.9829635025000000  0.5000000000000000
  0.5000000000000000  0.4829635025000000  0.5000000000000000
  0.0000000000000000  0.4829635025000000  0.5000000000000000
  0.4999999999999999  0.9829635025000000  0.0000000000000000
  0.0000000000000000  0.4829635025000000  0.0000000000000000
  0.5000000000000000  0.4829635025000000  0.0000000000000000
