POSCAR_6x6x6_MAPI
 1.0000000000000000
    37.7407207488000012    0.0000000000000000    0.0000000000000000
     0.0004661640000000   37.6433401080000039    0.0000000000000000
    -0.2380054260000000   -0.0009227586000000   37.7814902495999974
   C   H   I   N  Pb
 216 1296 648 216 216
Direct
  0.1504633326666667  0.1666604976666667  0.1660558383333333
  0.3171299993333334  0.6666604976666667  0.4993891716666666
  0.9837966659999998  0.3333271643333333  0.4993891716666666
  0.3171299993333333  0.6666604976666667  0.3327225050000000
  0.3171299993333334  0.6666604976666667  0.1660558383333333
  0.6504633326666667  0.8333271643333333  0.9993891716666669
  0.9837966659999998  0.3333271643333334  0.6660558383333334
  0.3171299993333333  0.4999938309999999  0.9993891716666669
  0.3171299993333333  0.4999938309999999  0.8327225050000001
  0.9837966659999998  0.3333271643333333  0.8327225050000001
  0.3171299993333334  0.4999938309999999  0.6660558383333334
  0.3171299993333333  0.4999938310000001  0.4993891716666666
  0.9837966659999998  0.3333271643333333  0.9993891716666669
  0.3171299993333333  0.4999938309999999  0.3327225050000000
  0.3171299993333334  0.4999938309999999  0.1660558383333333
  0.8171299993333333  0.1666604976666667  0.6660558383333334
  0.9837966659999998  0.4999938309999999  0.1660558383333333
  0.3171299993333334  0.3333271643333333  0.9993891716666669
  0.3171299993333333  0.3333271643333333  0.8327225050000001
  0.6504633326666667  0.9999938310000001  0.1660558383333333
  0.3171299993333334  0.6666604976666667  0.6660558383333334
  0.9837966659999998  0.3333271643333333  0.3327225050000000
  0.3171299993333333  0.6666604976666667  0.8327225050000001
  0.3171299993333334  0.6666604976666667  0.9993891716666669
  0.3171299993333332  0.9999938309999998  0.8327225050000001
  0.6504633326666666  0.8333271643333333  0.6660558383333334
  0.9837966659999998  0.1666604976666667  0.3327225050000000
  0.3171299993333333  0.9999938310000001  0.6660558383333334
  0.3171299993333333  0.9999938309999998  0.4993891716666666
  0.9837966659999998  0.1666604976666667  0.4993891716666666
  0.3171299993333332  0.9999938309999998  0.3327225050000000
  0.3171299993333333  0.9999938310000001  0.1660558383333333
  0.9837966660000000  0.1666604976666667  0.6660558383333334
  0.9837966659999998  0.4999938309999999  0.3327225050000000
  0.3171299993333334  0.8333271643333333  0.9993891716666669
  0.8171299993333333  0.3333271643333333  0.4993891716666666
  0.9837966659999998  0.1666604976666667  0.8327225050000001
  0.3171299993333334  0.8333271643333333  0.6660558383333334
  0.3171299993333334  0.8333271643333333  0.4993891716666666
  0.6504633326666667  0.8333271643333333  0.8327225050000001
  0.9837966660000000  0.1666604976666667  0.9993891716666669
  0.3171299993333334  0.8333271643333333  0.3327225050000000
  0.3171299993333334  0.8333271643333333  0.1660558383333333
  0.9837966659999998  0.3333271643333333  0.1660558383333333
  0.3171299993333334  0.8333271643333333  0.8327225050000001
  0.3171299993333333  0.3333271643333334  0.6660558383333334
  0.3171299993333334  0.3333271643333333  0.4993891716666666
  0.9837966659999998  0.4999938310000001  0.4993891716666666
  0.1504633326666667  0.8333271643333333  0.9993891716666669
  0.1504633326666666  0.8333271643333333  0.8327225050000001
  0.9837966659999998  0.6666604976666667  0.8327225050000001
  0.1504633326666666  0.8333271643333333  0.6660558383333334
  0.1504633326666667  0.8333271643333333  0.4993891716666666
  0.9837966660000000  0.6666604976666667  0.9993891716666669
  0.1504633326666667  0.8333271643333333  0.3327225050000000
  0.1504633326666667  0.8333271643333333  0.1660558383333333
  0.9837966660000000  0.8333271643333333  0.1660558383333333
  0.9837966660000000  0.6666604976666667  0.6660558383333334
  0.1504633326666667  0.6666604976666667  0.9993891716666669
  0.6504633326666667  0.9999938310000001  0.6660558383333334
  0.9837966659999998  0.8333271643333333  0.3327225050000000
  0.1504633326666666  0.6666604976666667  0.6660558383333334
  0.1504633326666666  0.6666604976666667  0.4993891716666666
  0.9837966659999998  0.8333271643333333  0.4993891716666666
  0.1504633326666667  0.6666604976666667  0.3327225050000000
  0.1504633326666667  0.6666604976666667  0.1660558383333333
  0.9837966660000000  0.8333271643333333  0.6660558383333334
  0.1504633326666667  0.4999938309999999  0.9993891716666669
  0.1504633326666666  0.6666604976666667  0.8327225050000001
  0.3171299993333333  0.9999938309999998  0.9993891716666669
  0.6504633326666667  0.9999938309999998  0.4993891716666666
  0.1504633326666667  0.9999938309999998  0.3327225050000000
  0.3171299993333333  0.3333271643333333  0.3327225050000000
  0.3171299993333333  0.3333271643333333  0.1660558383333333
  0.9837966659999998  0.4999938309999999  0.6660558383333334
  0.3171299993333333  0.1666604976666667  0.9993891716666669
  0.3171299993333333  0.1666604976666667  0.8327225050000001
  0.9837966659999998  0.4999938309999999  0.8327225050000001
  0.3171299993333334  0.1666604976666667  0.6660558383333334
  0.3171299993333333  0.1666604976666667  0.4993891716666666
  0.6504633326666668  0.9999938309999998  0.3327225050000000
  0.1504633326666667  0.9999938310000001  0.1660558383333333
  0.9837966659999998  0.4999938309999999  0.9993891716666669
  0.3171299993333334  0.1666604976666667  0.1660558383333333
  0.9837966660000000  0.6666604976666667  0.1660558383333333
  0.1504633326666667  0.9999938309999998  0.9993891716666669
  0.1504633326666666  0.9999938309999998  0.8327225050000001
  0.9837966659999998  0.6666604976666667  0.3327225050000000
  0.1504633326666667  0.9999938310000001  0.6660558383333334
  0.1504633326666667  0.9999938309999998  0.4993891716666666
  0.8171299993333333  0.1666604976666667  0.4993891716666666
  0.9837966659999998  0.6666604976666667  0.4993891716666666
  0.3171299993333333  0.1666604976666667  0.3327225050000000
  0.9837966660000000  0.1666604976666667  0.1660558383333333
  0.8171299993333333  0.1666604976666667  0.1660558383333333
  0.4837966659999999  0.1666604976666667  0.1660558383333333
  0.8171299993333333  0.3333271643333333  0.3327225050000000
  0.6504633326666668  0.1666604976666667  0.8327225050000001
  0.8171299993333333  0.4999938309999999  0.8327225050000001
  0.6504633326666667  0.1666604976666667  0.6660558383333334
  0.6504633326666668  0.6666604976666667  0.8327225050000001
  0.6504633326666667  0.1666604976666667  0.4993891716666666
  0.8171299993333333  0.4999938309999999  0.9993891716666669
  0.6504633326666668  0.1666604976666667  0.3327225050000000
  0.6504633326666667  0.1666604976666667  0.1660558383333333
  0.6504633326666668  0.1666604976666667  0.9993891716666669
  0.8171299993333333  0.6666604976666667  0.1660558383333333
  0.4837966660000000  0.9999938309999998  0.8327225050000001
  0.8171299993333333  0.6666604976666667  0.3327225050000000
  0.4837966659999999  0.9999938310000001  0.6660558383333334
  0.4837966660000000  0.9999938309999998  0.4993891716666666
  0.8171299993333333  0.6666604976666667  0.4993891716666666
  0.4837966660000000  0.9999938309999998  0.3327225050000000
  0.6504633326666668  0.6666604976666667  0.9993891716666669
  0.4837966659999999  0.9999938310000001  0.1660558383333333
  0.8171299993333333  0.6666604976666667  0.6660558383333334
  0.4837966660000000  0.9999938309999998  0.9993891716666669
  0.4837966659999999  0.8333271643333333  0.9993891716666669
  0.8171299993333332  0.4999938309999999  0.6660558383333334
  0.6504633326666668  0.3333271643333333  0.3327225050000000
  0.6504633326666668  0.6666604976666667  0.3327225050000000
  0.6504633326666667  0.6666604976666667  0.4993891716666666
  0.6504633326666667  0.6666604976666667  0.1660558383333333
  0.8171299993333333  0.3333271643333334  0.6660558383333334
  0.6504633326666667  0.4999938309999999  0.9993891716666669
  0.6504633326666667  0.4999938309999999  0.8327225050000001
  0.8171299993333333  0.3333271643333333  0.8327225050000001
  0.6504633326666666  0.4999938309999999  0.6660558383333334
  0.6504633326666666  0.4999938310000001  0.4993891716666666
  0.6504633326666667  0.3333271643333333  0.1660558383333333
  0.8171299993333333  0.3333271643333333  0.9993891716666669
  0.6504633326666666  0.4999938309999999  0.1660558383333333
  0.8171299993333332  0.4999938309999999  0.1660558383333333
  0.6504633326666668  0.3333271643333333  0.9993891716666669
  0.6504633326666667  0.6666604976666667  0.6660558383333334
  0.6504633326666668  0.3333271643333333  0.8327225050000001
  0.8171299993333333  0.4999938309999999  0.3327225050000000
  0.6504633326666667  0.3333271643333334  0.6660558383333334
  0.6504633326666667  0.3333271643333333  0.4993891716666666
  0.8171299993333332  0.4999938310000001  0.4993891716666666
  0.6504633326666667  0.4999938309999999  0.3327225050000000
  0.1504633326666667  0.4999938309999999  0.8327225050000001
  0.4837966659999999  0.8333271643333333  0.8327225050000001
  0.4837966659999999  0.8333271643333333  0.6660558383333334
  0.4837966659999999  0.4999938309999999  0.1660558383333333
  0.8171299993333333  0.9999938310000001  0.1660558383333333
  0.4837966659999999  0.3333271643333333  0.9993891716666669
  0.4837966660000000  0.3333271643333333  0.8327225050000001
  0.8171299993333333  0.9999938309999998  0.3327225050000000
  0.4837966659999999  0.3333271643333334  0.6660558383333334
  0.8171299993333333  0.1666604976666667  0.9993891716666669
  0.4837966659999999  0.3333271643333333  0.4993891716666666
  0.8171299993333333  0.9999938309999998  0.4993891716666666
  0.4837966659999999  0.4999938309999999  0.3327225050000000
  0.4837966659999999  0.3333271643333333  0.3327225050000000
  0.4837966659999999  0.3333271643333333  0.1660558383333333
  0.8171299993333333  0.9999938310000001  0.6660558383333334
  0.4837966660000000  0.1666604976666667  0.9993891716666669
  0.4837966660000000  0.1666604976666667  0.8327225050000001
  0.8171299993333333  0.9999938309999998  0.8327225050000001
  0.4837966659999999  0.1666604976666667  0.6660558383333334
  0.4837966660000000  0.1666604976666667  0.4993891716666666
  0.8171299993333333  0.9999938309999998  0.9993891716666669
  0.4837966660000000  0.1666604976666667  0.3327225050000000
  0.6504633326666666  0.8333271643333333  0.4993891716666666
  0.8171299993333333  0.6666604976666667  0.8327225050000001
  0.8171299993333333  0.8333271643333333  0.9993891716666669
  0.6504633326666667  0.8333271643333333  0.3327225050000000
  0.4837966659999999  0.8333271643333333  0.4993891716666666
  0.8171299993333333  0.6666604976666667  0.9993891716666669
  0.4837966659999999  0.8333271643333333  0.3327225050000000
  0.8171299993333333  0.3333271643333333  0.1660558383333333
  0.4837966659999999  0.8333271643333333  0.1660558383333333
  0.8171299993333332  0.8333271643333333  0.1660558383333333
  0.4837966659999999  0.6666604976666667  0.9993891716666669
  0.6504633326666666  0.8333271643333333  0.1660558383333333
  0.4837966660000000  0.6666604976666667  0.8327225050000001
  0.4837966659999999  0.4999938310000001  0.4993891716666666
  0.8171299993333333  0.8333271643333333  0.3327225050000000
  0.4837966659999999  0.6666604976666667  0.4993891716666666
  0.8171299993333332  0.8333271643333333  0.4993891716666666
  0.4837966659999999  0.6666604976666667  0.3327225050000000
  0.4837966659999999  0.6666604976666667  0.1660558383333333
  0.8171299993333332  0.8333271643333333  0.6660558383333334
  0.4837966659999999  0.4999938309999999  0.9993891716666669
  0.4837966659999999  0.4999938309999999  0.8327225050000001
  0.8171299993333333  0.8333271643333333  0.8327225050000001
  0.4837966659999999  0.4999938309999999  0.6660558383333334
  0.4837966659999999  0.6666604976666667  0.6660558383333334
  0.8171299993333333  0.1666604976666667  0.3327225050000000
  0.8171299993333333  0.1666604976666667  0.8327225050000001
  0.9837966659999998  0.8333271643333333  0.8327225050000001
  0.9837966659999998  0.9999938309999998  0.9993891716666669
  0.1504633326666667  0.4999938310000001  0.4993891716666666
  0.6504633326666668  0.9999938309999998  0.8327225050000001
  0.9837966660000000  0.8333271643333333  0.9993891716666669
  0.1504633326666667  0.1666604976666667  0.4993891716666666
  0.1504633326666667  0.4999938309999999  0.3327225050000000
  0.1504633326666666  0.1666604976666667  0.6660558383333334
  0.9837966659999998  0.9999938309999998  0.8327225050000001
  0.1504633326666667  0.4999938309999999  0.1660558383333333
  0.1504633326666666  0.1666604976666667  0.8327225050000001
  0.9837966659999998  0.9999938310000001  0.1660558383333333
  0.1504633326666667  0.3333271643333333  0.9993891716666669
  0.1504633326666667  0.1666604976666667  0.9993891716666669
  0.1504633326666667  0.3333271643333333  0.8327225050000001
  0.9837966659999998  0.9999938310000001  0.6660558383333334
  0.6504633326666668  0.9999938309999998  0.9993891716666669
  0.1504633326666667  0.3333271643333333  0.1660558383333333
  0.9837966659999998  0.9999938309999998  0.3327225050000000
  0.1504633326666667  0.3333271643333334  0.6660558383333334
  0.1504633326666667  0.3333271643333333  0.3327225050000000
  0.1504633326666667  0.3333271643333333  0.4993891716666666
  0.1504633326666667  0.1666604976666667  0.3327225050000000
  0.1504633326666667  0.4999938309999999  0.6660558383333334
  0.9837966659999998  0.9999938309999998  0.4993891716666666
  0.5303355008333334  0.3333338333333333  0.8642254993333334
  0.4729656676666665  0.5239595001666667  0.0119880003333333
  0.4774179955000000  0.6666188340000000  0.1376224955000000
  0.5345655008333332  0.8108438353333334  0.1597494980000000
  0.1396323343333333  0.0239595001666667  0.8453213336666667
  0.5303355008333333  0.6666671666666666  0.0308921660000000
  0.6970021675000000  0.0000005000000000  0.8642254993333334
  0.1395981708333333  0.1427526673333334  0.8453971668333334
  0.4729315041666666  0.6427526673333332  0.0120638335000000
  0.8107513288333332  0.8332855006666666  0.6376224955000001
  0.3678988341666666  0.4775105019999999  0.9930828313333334
  0.3679313336666666  0.3557123343333333  0.9930223326666667
  0.4729315041666666  0.4760860006666667  0.8453971668333334
  0.4729656676666666  0.3572928334999999  0.8453213336666667
  0.4774179955000001  0.4999521673333334  0.9709558288333333
  0.8062990010000000  0.6906261668333333  0.5119880003333332
  0.0345980003333333  0.0223790010000000  0.9930223326666667
  0.3636688341666666  0.3333338333333333  0.8642254993333334
  0.8062648374999999  0.8094193340000000  0.5120638335000000
  0.3679313336666666  0.5223790009999999  0.1596889993333334
  0.3636688341666666  0.5000005000000000  0.0308921660000000
  0.6395981708333334  0.8094193340000000  0.0120638335000000
  0.5345980003333334  0.6890456676666665  0.1596889993333334
  0.9729656676666666  0.8572928334999999  0.5119880003333332
  0.8107513288333332  0.8332855006666666  0.4709558288333334
  0.3636688341666666  0.5000005000000000  0.1975588326666667
  0.3678988341666666  0.6441771686666667  0.3264161646666667
  0.3679313336666666  0.5223790009999999  0.3263556660000000
  0.3678988341666666  0.6441771686666666  0.1597494980000000
  0.4729315041666666  0.6427526673333334  0.1787305001666667
  0.4774179954999999  0.6666188340000000  0.3042891621666667
  0.8062990010000000  0.6906261668333333  0.3453213336666667
  0.1440846621666667  0.1666188340000000  0.9709558288333333
  0.8062648374999999  0.8094193340000000  0.3453971668333333
  0.7012646669999999  0.6890456676666665  0.4930223326666667
  0.7012321674999998  0.8108438353333334  0.4930828313333334
  0.6970021674999999  0.6666671666666666  0.3642254993333334
  0.4729656676666666  0.5239595001666667  0.1786546670000000
  0.7012646669999999  0.6890456676666666  0.6596889993333334
  0.7012321674999998  0.8108438353333334  0.6597494980000000
  0.6970021674999999  0.6666671666666667  0.5308921660000000
  0.7012646670000000  0.6890456676666665  0.8263556660000001
  0.8062990010000000  0.1906261668333333  0.3453213336666667
  0.7012321674999999  0.8108438353333333  0.8264161646666668
  0.6970021674999999  0.6666671666666666  0.6975588326666667
  0.3636688341666666  0.3333338333333333  0.3642254993333334
  0.3678988341666666  0.4775105020000001  0.4930828313333334
  0.3679313336666666  0.3557123343333333  0.4930223326666667
  0.8062648375000000  0.8094193340000000  0.6787305001666667
  0.4729315041666666  0.4760860006666667  0.3453971668333333
  0.4774179955000001  0.4999521673333334  0.4709558288333334
  0.6440846621666667  0.6666188340000000  0.3042891621666667
  0.8062990010000000  0.0239595001666667  0.0119880003333333
  0.8062990010000001  0.0239595001666667  0.8453213336666667
  0.6440846621666667  0.8332855006666666  0.3042891621666667
  0.6396323343333334  0.5239595001666667  0.1786546670000000
  0.8107513288333333  0.8332855006666666  0.9709558288333333
  0.4729656676666666  0.3572928335000000  0.3453213336666667
  0.9774179954999997  0.9999521673333335  0.6376224955000001
  0.8062990010000000  0.6906261668333333  0.6786546670000000
  0.4774179955000000  0.4999521673333333  0.6376224955000001
  0.3636688341666666  0.3333338333333333  0.6975588326666667
  0.3678988341666666  0.4775105019999999  0.8264161646666668
  0.3679313336666666  0.3557123343333333  0.8263556660000001
  0.4729315041666666  0.4760860006666667  0.6787305001666667
  0.4729656676666666  0.3572928335000000  0.6786546670000000
  0.4774179955000000  0.4999521673333333  0.8042891621666667
  0.7012321674999999  0.1441771686666667  0.9930828313333334
  0.0345655008333333  0.1441771686666667  0.9930828313333334
  0.7012646670000000  0.0223790010000000  0.9930223326666667
  0.8062648375000000  0.1427526673333334  0.8453971668333334
  0.0303355008333333  0.0000005000000000  0.8642254993333334
  0.8107513288333332  0.8332855006666666  0.8042891621666667
  0.3636688341666666  0.3333338333333333  0.5308921660000000
  0.3678988341666666  0.4775105019999999  0.6597494980000000
  0.3679313336666666  0.3557123343333333  0.6596889993333334
  0.4729315041666666  0.4760860006666666  0.5120638335000000
  0.4729656676666666  0.3572928334999999  0.5119880003333332
  0.8107513288333332  0.1666188340000000  0.1376224955000000
  0.3636688341666666  0.3333338333333333  0.1975588326666667
  0.6396323343333333  0.6906261668333333  0.0119880003333333
  0.4729656676666666  0.5239595001666667  0.3453213336666667
  0.4774179955000000  0.8332855006666666  0.3042891621666667
  0.8062990010000001  0.5239595001666667  0.8453213336666667
  0.1396323343333333  0.0239595001666667  0.6786546670000000
  0.8062648375000000  0.6427526673333332  0.8453971668333334
  0.7012646670000000  0.5223790009999999  0.9930223326666667
  0.7012321674999999  0.6441771686666666  0.9930828313333334
  0.6970021675000001  0.5000005000000000  0.8642254993333334
  0.4729656676666666  0.6906261668333333  0.1786546670000000
  0.3636688341666666  0.6666671666666666  0.0308921660000000
  0.3679313336666666  0.6890456676666665  0.1596889993333334
  0.4729315041666666  0.8094193340000000  0.0120638335000000
  0.4729656676666666  0.6906261668333333  0.0119880003333333
  0.4774179955000000  0.8332855006666666  0.1376224955000000
  0.1395981708333333  0.1427526673333334  0.6787305001666667
  0.0345980003333333  0.0223790010000000  0.8263556660000001
  0.0345655008333333  0.1441771686666667  0.8264161646666668
  0.3678988341666666  0.8108438353333334  0.1597494980000000
  0.8107513288333332  0.8332855006666666  0.1376224955000000
  0.4729315041666666  0.8094193340000000  0.1787305001666667
  0.3678988341666666  0.8108438353333333  0.3264161646666667
  0.7012646670000000  0.5223790009999999  0.8263556660000001
  0.7012321674999999  0.6441771686666667  0.8264161646666668
  0.6970021675000000  0.5000005000000000  0.6975588326666667
  0.3636688341666666  0.6666671666666666  0.3642254993333334
  0.3678988341666666  0.8108438353333334  0.4930828313333334
  0.3679313336666666  0.6890456676666665  0.4930223326666667
  0.4729315041666666  0.8094193340000000  0.3453971668333333
  0.3679313336666666  0.6890456676666665  0.3263556660000000
  0.4729656676666666  0.6906261668333333  0.3453213336666667
  0.5345655008333334  0.6441771686666666  0.9930828313333334
  0.6440846621666667  0.9999521673333330  0.9709558288333333
  0.5303355008333335  0.5000005000000000  0.8642254993333334
  0.8107513288333333  0.3332855006666666  0.1376224955000000
  0.1440846621666667  0.1666188340000000  0.8042891621666667
  0.8107513288333333  0.6666188340000000  0.9709558288333333
  0.3636688341666666  0.6666671666666666  0.1975588326666667
  0.4774179955000001  0.8332855006666666  0.4709558288333334
  0.3636688341666666  0.5000005000000000  0.8642254993333334
  0.3678988341666666  0.6441771686666666  0.9930828313333334
  0.3679313336666666  0.5223790009999999  0.9930223326666667
  0.3636688341666666  0.5000005000000001  0.5308921660000000
  0.3678988341666666  0.6441771686666666  0.6597494980000000
  0.3679313336666666  0.5223790010000000  0.6596889993333334
  0.4729315041666666  0.6427526673333332  0.5120638335000000
  0.4729656676666665  0.5239595001666667  0.5119880003333332
  0.4774179955000000  0.6666188340000000  0.6376224955000001
  0.8062990010000001  0.6906261668333333  0.1786546670000000
  0.8107513288333332  0.8332855006666666  0.3042891621666667
  0.9729315041666665  0.9760860006666666  0.5120638335000000
  0.7012646670000000  0.6890456676666665  0.3263556660000000
  0.7012321674999999  0.8108438353333333  0.3264161646666667
  0.6970021674999999  0.6666671666666666  0.1975588326666667
  0.3636688341666666  0.5000005000000000  0.3642254993333334
  0.3678988341666666  0.6441771686666666  0.4930828313333334
  0.3679313336666666  0.5223790009999999  0.4930223326666667
  0.4729315041666666  0.6427526673333332  0.3453971668333333
  0.8062648375000000  0.8094193340000000  0.1787305001666667
  0.8679313336666664  0.8557123343333333  0.6596889993333334
  0.6440846621666667  0.8332855006666666  0.1376224955000000
  0.8678988341666667  0.9775105020000000  0.6597494980000000
  0.4729315041666666  0.6427526673333332  0.8453971668333334
  0.4729656676666666  0.5239595001666667  0.8453213336666667
  0.4774179955000000  0.6666188340000000  0.9709558288333333
  0.8062990010000000  0.6906261668333333  0.0119880003333333
  0.0303355008333333  0.0000005000000000  0.6975588326666667
  0.8062648375000000  0.8094193340000000  0.0120638335000000
  0.7012646670000000  0.6890456676666665  0.1596889993333334
  0.7012321674999998  0.8108438353333334  0.1597494980000000
  0.6970021674999999  0.6666671666666666  0.0308921660000000
  0.3636688341666666  0.5000005000000000  0.6975588326666667
  0.3678988341666666  0.6441771686666667  0.8264161646666668
  0.3679313336666666  0.5223790009999999  0.8263556660000001
  0.4729315041666666  0.6427526673333334  0.6787305001666667
  0.4729656676666665  0.5239595001666667  0.6786546670000000
  0.4774179955000000  0.6666188340000000  0.8042891621666667
  0.8636688341666665  0.8333338333333333  0.5308921660000000
  0.8062648374999999  0.3094193340000000  0.3453971668333333
  0.4774179955000000  0.6666188340000000  0.4709558288333334
  0.7012646669999999  0.1890456676666666  0.4930223326666667
  0.3678988341666666  0.4775105019999999  0.3264161646666667
  0.4729315041666666  0.4760860006666667  0.1787305001666667
  0.7012321674999999  0.9775105020000000  0.6597494980000000
  0.6970021674999999  0.8333338333333333  0.5308921660000000
  0.3636688341666666  0.0000005000000000  0.6975588326666667
  0.3678988341666666  0.1441771686666667  0.8264161646666668
  0.3679313336666666  0.0223790010000000  0.8263556660000001
  0.4729315041666666  0.1427526673333334  0.6787305001666667
  0.4729656676666666  0.0239595001666667  0.6786546670000000
  0.7012646669999999  0.8557123343333333  0.6596889993333334
  0.4774179955000000  0.1666188340000000  0.8042891621666667
  0.1396323343333333  0.1906261668333333  0.1786546670000000
  0.6395981708333333  0.8094193340000000  0.3453971668333333
  0.5345980003333333  0.6890456676666665  0.4930223326666667
  0.1395981708333333  0.3094193340000000  0.1787305001666667
  0.8107513288333332  0.9999521673333333  0.8042891621666667
  0.3636688341666666  0.0000005000000000  0.5308921660000000
  0.3678988341666666  0.1441771686666667  0.6597494980000000
  0.6396323343333333  0.6906261668333333  0.3453213336666667
  0.3679313336666666  0.0223790010000000  0.6596889993333334
  0.8062648374999999  0.9760860006666666  0.5120638335000000
  0.8062990010000000  0.8572928334999999  0.5119880003333332
  0.3678988341666666  0.3108438353333333  0.1597494980000000
  0.3679313336666666  0.1890456676666666  0.1596889993333334
  0.4729315041666666  0.3094193340000000  0.0120638335000000
  0.4729656676666665  0.1906261668333333  0.0119880003333333
  0.4774179955000001  0.3332855006666666  0.1376224955000000
  0.9729315041666667  0.9760860006666665  0.3453971668333333
  0.5303355008333334  0.5000005000000000  0.1975588326666667
  0.1440846621666667  0.3332855006666667  0.3042891621666667
  0.6440846621666667  0.8332855006666666  0.4709558288333334
  0.8107513288333332  0.9999521673333335  0.6376224955000001
  0.3636688341666666  0.0000005000000000  0.8642254993333334
  0.3678988341666666  0.1441771686666667  0.9930828313333334
  0.3679313336666666  0.0223790010000000  0.9930223326666667
  0.4729315041666666  0.1427526673333334  0.8453971668333334
  0.4729656676666666  0.0239595001666667  0.8453213336666667
  0.4774179955000001  0.1666188340000000  0.9709558288333333
  0.9729656676666666  0.8572928334999999  0.3453213336666667
  0.4729315041666666  0.1427526673333334  0.5120638335000000
  0.4729656676666666  0.0239595001666667  0.5119880003333332
  0.4774179955000000  0.1666188340000000  0.6376224955000001
  0.4729315041666666  0.1427526673333333  0.1787305001666667
  0.4729656676666666  0.0239595001666667  0.1786546670000000
  0.4774179955000000  0.1666188340000000  0.3042891621666667
  0.8062990010000001  0.8572928334999999  0.8453213336666667
  0.9774179955000000  0.9999521673333333  0.4709558288333334
  0.8062648375000000  0.9760860006666665  0.8453971668333334
  0.7012646670000000  0.8557123343333333  0.9930223326666667
  0.3679313336666666  0.0223790010000000  0.3263556660000000
  0.8107513288333333  0.3332855006666667  0.4709558288333334
  0.6970021675000000  0.8333338333333332  0.8642254993333334
  0.3636688341666666  0.0000005000000000  0.0308921660000000
  0.3678988341666666  0.1441771686666667  0.1597494980000000
  0.3679313336666666  0.0223790010000000  0.1596889993333334
  0.4729315041666666  0.1427526673333333  0.0120638335000000
  0.4729656676666666  0.0239595001666667  0.0119880003333333
  0.4774179955000000  0.1666188340000000  0.1376224955000000
  0.7012321674999999  0.9775105019999998  0.9930828313333334
  0.3678988341666666  0.1441771686666667  0.3264161646666667
  0.3636688341666666  0.0000005000000000  0.1975588326666667
  0.8107513288333333  0.9999521673333330  0.9709558288333333
  0.8062990010000000  0.8572928335000000  0.6786546670000000
  0.0345980003333333  0.1890456676666666  0.3263556660000000
  0.8062648375000000  0.9760860006666666  0.6787305001666667
  0.7012646670000000  0.8557123343333333  0.8263556660000001
  0.7012321674999999  0.9775105020000000  0.8264161646666668
  0.6970021674999999  0.8333338333333332  0.6975588326666667
  0.3636688341666666  0.0000005000000000  0.3642254993333334
  0.3678988341666666  0.1441771686666667  0.4930828313333334
  0.3679313336666666  0.0223790010000000  0.4930223326666667
  0.4729315041666666  0.1427526673333334  0.3453971668333333
  0.4729656676666666  0.0239595001666667  0.3453213336666667
  0.4774179955000001  0.1666188340000000  0.4709558288333334
  0.5345655008333332  0.8108438353333334  0.4930828313333334
  0.0345655008333333  0.3108438353333333  0.3264161646666667
  0.5303355008333333  0.6666671666666666  0.3642254993333334
  0.6970021674999999  0.0000005000000000  0.6975588326666667
  0.0303355008333333  0.1666671666666666  0.1975588326666667
  0.3636688341666666  0.1666671666666666  0.0308921660000000
  0.3679313336666666  0.3557123343333333  0.3263556660000000
  0.6970021674999999  0.8333338333333332  0.3642254993333334
  0.7012646669999999  0.8557123343333332  0.4930223326666667
  0.8107513288333332  0.9999521673333333  0.1376224955000000
  0.3636688341666666  0.1666671666666667  0.8642254993333334
  0.3678988341666666  0.3108438353333333  0.9930828313333334
  0.3679313336666666  0.1890456676666667  0.9930223326666667
  0.4729315041666666  0.3094193340000000  0.8453971668333334
  0.4729656676666666  0.1906261668333333  0.8453213336666667
  0.4774179955000001  0.3332855006666667  0.9709558288333333
  0.1440846621666667  0.3332855006666666  0.1376224955000000
  0.8062990010000000  0.8572928334999999  0.0119880003333333
  0.8062648375000000  0.9760860006666665  0.0120638335000000
  0.7012646670000000  0.8557123343333333  0.1596889993333334
  0.7012321674999999  0.9775105020000000  0.1597494980000000
  0.6970021674999999  0.8333338333333332  0.0308921660000000
  0.3636688341666666  0.1666671666666667  0.6975588326666667
  0.3678988341666666  0.3108438353333333  0.8264161646666668
  0.3679313336666666  0.1890456676666666  0.8263556660000001
  0.1396323343333333  0.1906261668333333  0.0119880003333333
  0.4729315041666666  0.3094193340000000  0.6787305001666667
  0.5345980003333334  0.6890456676666665  0.3263556660000000
  0.8062648375000000  0.1427526673333333  0.0120638335000000
  0.4729656676666666  0.3572928334999999  0.1786546670000000
  0.4774179955000000  0.4999521673333333  0.3042891621666667
  0.8062990010000001  0.6906261668333333  0.8453213336666667
  0.6395981708333334  0.6427526673333334  0.1787305001666667
  0.8062648375000000  0.8094193340000000  0.8453971668333334
  0.5345980003333334  0.5223790009999999  0.3263556660000000
  0.7012646670000000  0.6890456676666665  0.9930223326666667