POSCAR_4x4x4_MAPI
 1.0000000000000000
    25.1604804991999984    0.0000000000000000    0.0000000000000000
     0.0003107760000000   25.0955600720000014    0.0000000000000000
    -0.1586702840000000   -0.0006151724000000   25.1876601664000006
   C   H   I   N  Pb
  64 384 192  64  64
Direct
  0.2256949990000000  0.2499907465000000  0.2490837575000000
  0.2256949990000000  0.9999907465000000  0.2490837575000000
  0.9756949990000000  0.7499907465000001  0.7490837574999999
  0.4756949990000001  0.9999907465000000  0.9990837574999999
  0.2256949990000000  0.7499907465000000  0.9990837574999999
  0.4756949990000000  0.4999907465000000  0.4990837574999999
  0.7256949990000000  0.2499907465000000  0.2490837575000000
  0.2256949990000000  0.7499907465000001  0.7490837574999999
  0.9756949990000000  0.7499907465000000  0.9990837574999999
  0.7256949990000001  0.2499907465000000  0.4990837574999999
  0.2256949990000000  0.7499907465000000  0.4990837574999999
  0.4756949990000001  0.9999907465000000  0.7490837574999999
  0.7256949990000000  0.9999907465000000  0.9990837574999999
  0.2256949990000000  0.7499907465000000  0.2490837575000000
  0.9756949990000001  0.9999907465000000  0.2490837575000000
  0.7256949990000000  0.2499907465000000  0.9990837574999999
  0.2256949990000000  0.4999907465000000  0.9990837574999999
  0.7256949990000000  0.9999907465000000  0.7490837574999999
  0.7256949990000000  0.4999907465000000  0.2490837575000000
  0.2256949990000000  0.4999907465000000  0.7490837574999999
  0.9756949990000002  0.9999907465000000  0.4990837574999999
  0.7256949990000000  0.4999907465000000  0.4990837574999999
  0.2256949990000000  0.4999907465000000  0.4990837574999999
  0.7256949990000001  0.2499907465000000  0.7490837574999999
  0.7256949990000000  0.9999907465000000  0.4990837574999999
  0.9756949990000002  0.2499907465000000  0.4990837574999999
  0.4756949990000000  0.9999907465000000  0.4990837574999999
  0.9756949990000002  0.4999907465000000  0.4990837574999999
  0.4756949990000001  0.4999907465000000  0.7490837574999999
  0.4756949990000000  0.4999907465000000  0.2490837575000000
  0.9756949990000001  0.4999907465000000  0.7490837574999999
  0.4756949990000000  0.4999907465000000  0.9990837574999999
  0.4756949990000001  0.2499907465000000  0.9990837574999999
  0.9756949990000001  0.4999907465000000  0.2490837575000000
  0.4756949990000001  0.7499907465000000  0.2490837575000000
  0.4756949990000000  0.2499907465000000  0.7490837574999999
  0.9756949990000001  0.4999907465000000  0.9990837574999999
  0.2256949990000000  0.9999907465000000  0.4990837574999999
  0.4756949990000000  0.7499907465000000  0.4990837574999999
  0.9756949990000001  0.2499907465000000  0.9990837574999999
  0.4756949990000000  0.7499907465000001  0.7490837574999999
  0.4756949990000001  0.2499907465000000  0.2490837575000000
  0.9756949990000000  0.7499907465000000  0.2490837575000000
  0.4756949990000001  0.7499907465000000  0.9990837574999999
  0.2256949990000000  0.9999907465000000  0.9990837574999999
  0.9756949990000001  0.2499907465000000  0.7490837574999999
  0.4756949990000001  0.9999907465000000  0.2490837575000000
  0.2256949990000000  0.9999907465000000  0.7490837574999999
  0.9756949990000001  0.7499907465000000  0.4990837574999999
  0.4756949990000000  0.2499907465000000  0.4990837574999999
  0.7256949990000000  0.4999907465000000  0.7490837574999999
  0.9756949990000001  0.2499907465000000  0.2490837575000000
  0.2256949990000000  0.2499907465000000  0.4990837574999999
  0.9756949990000001  0.9999907465000000  0.9990837574999999
  0.7256949989999999  0.7499907465000000  0.2490837575000000
  0.7256949990000000  0.9999907465000000  0.2490837575000000
  0.7256949990000000  0.7499907465000000  0.4990837574999999
  0.2256949990000000  0.2499907465000000  0.9990837574999999
  0.7256949990000000  0.4999907465000000  0.9990837574999999
  0.7256949989999999  0.7499907465000000  0.9990837574999999
  0.7256949990000000  0.7499907465000001  0.7490837574999999
  0.9756949990000001  0.9999907465000000  0.7490837574999999
  0.2256949990000000  0.2499907465000000  0.7490837574999999
  0.2256949990000000  0.4999907465000000  0.2490837575000000
  0.4593972562500001  0.7141290009999999  0.7680957502499999
  0.5518970005000000  0.5335685014999999  0.9895334989999999
  0.4594485014999999  0.5359392502499999  0.7679820004999999
  0.4661269932500001  0.7499282509999998  0.9564337432499999
  0.9594485015000002  0.0359392502500000  0.5179820005000000
  0.7093972562499999  0.7141290009999999  0.7680957502499999
  0.9593972562500001  0.2141290010000000  0.5180957502500000
  0.8018970005000001  0.0335685015000000  0.7395334990000000
  0.8018482512500000  0.2162657530000000  0.7396242470000000
  0.3018970005000000  0.5335685014999999  0.9895334989999999
  0.4593972562500001  0.4641290010000000  0.5180957502500000
  0.2955032512500000  0.2500007500000000  0.2963382490000000
  0.2955032512500000  0.5000007500000000  0.5463382489999999
  0.3018482512500000  0.7162657530000001  0.7396242470000000
  0.7094485015000001  0.5359392502499999  0.7679820004999999
  0.3018970005000000  0.5335685015000000  0.7395334990000000
  0.4593972562500000  0.7141290010000000  0.5180957502500000
  0.4594485015000001  0.5359392502500000  0.5179820005000000
  0.4661269932500000  0.7499282510000000  0.7064337432500000
  0.7161269932500001  0.7499282509999998  0.4564337432500000
  0.7955032512500001  0.0000007500000000  0.5463382489999999
  0.3018482512500000  0.7162657529999998  0.9896242470000000
  0.3018482512500000  0.4662657530000000  0.4896242470000000
  0.2955032512500000  0.5000007500000000  0.7963382489999999
  0.4661269932500001  0.9999282509999999  0.4564337432500000
  0.9594485015000003  0.0359392502500000  0.2679820005000000
  0.5518482512500000  0.7162657529999999  0.2396242470000000
  0.9593972562500002  0.2141290010000000  0.2680957502500000
  0.8018970005000002  0.0335685015000000  0.4895334989999999
  0.8018482512500001  0.2162657530000000  0.4896242470000000
  0.7955032512500001  0.0000007500000000  0.2963382490000000
  0.5455032512500000  0.5000007500000000  0.0463382490000000
  0.2955032512500000  0.7500007500000000  0.0463382490000000
  0.3018482512500000  0.9662657529999999  0.2396242470000000
  0.4593972562500001  0.4641290010000000  0.2680957502500000
  0.3018970005000000  0.7835685014999999  0.2395334990000000
  0.4593972562500000  0.9641290010000000  0.0180957502500000
  0.4594485015000000  0.7859392502500000  0.0179820005000000
  0.4661269932500001  0.9999282509999999  0.2064337432500000
  0.5455032512500000  0.5000007500000000  0.7963382489999999
  0.3018970005000001  0.2835685015000000  0.4895334989999999
  0.5518482512500000  0.7162657529999998  0.9896242470000000
  0.9661269932500001  0.2499282510000000  0.7064337432500000
  0.7094485015000001  0.5359392502499999  0.2679820005000000
  0.9661269932500001  0.2499282510000000  0.9564337432499999
  0.9661269932500003  0.4999282510000000  0.4564337432500000
  0.2955032512500000  0.5000007500000000  0.2963382490000000
  0.9661269932500003  0.4999282509999999  0.2064337432500000
  0.2955032512500000  0.2500007500000000  0.7963382489999999
  0.3018482512500000  0.4662657530000000  0.9896242470000000
  0.3018970005000000  0.2835685015000000  0.9895334989999999
  0.4593972562500000  0.4641290010000000  0.7680957502499999
  0.7093972562500001  0.7141290010000000  0.5180957502500000
  0.4594485015000000  0.2859392502500000  0.7679820004999999
  0.4661269932500000  0.4999282510000000  0.9564337432499999
  0.9594485015000002  0.2859392502500000  0.0179820005000000
  0.9593972562500002  0.4641290010000000  0.0180957502500000
  0.4661269932500001  0.4999282510000000  0.7064337432500000
  0.8018970005000002  0.2835685015000000  0.2395334990000000
  0.8018482512500000  0.4662657530000000  0.2396242470000000
  0.7955032512500002  0.2500007500000000  0.0463382490000000
  0.7161269932500002  0.7499282510000000  0.7064337432500000
  0.2955032512500000  0.2500007500000000  0.5463382489999999
  0.3018482512500000  0.4662657529999999  0.7396242470000000
  0.7094485015000001  0.5359392502500000  0.5179820005000000
  0.3018970005000001  0.2835685015000000  0.7395334990000000
  0.7161269932500001  0.7499282509999998  0.9564337432499999
  0.4594485015000000  0.2859392502500000  0.5179820005000000
  0.5455032512500000  0.5000007500000000  0.2963382490000000
  0.4594485015000000  0.5359392502500000  0.0179820005000000
  0.3018482512500000  0.7162657529999999  0.4896242470000000
  0.3018970005000000  0.5335685014999999  0.4895334989999999
  0.4593972562500001  0.7141290010000000  0.2680957502500000
  0.4594485015000000  0.7859392502500000  0.2679820005000000
  0.4594485015000000  0.5359392502499999  0.2679820005000000
  0.4661269932500001  0.7499282509999998  0.4564337432500000
  0.9594485015000002  0.0359392502500000  0.7679820004999999
  0.7093972562500001  0.7141290010000000  0.2680957502500000
  0.9593972562500001  0.2141290010000000  0.7680957502499999
  0.8018970005000001  0.0335685015000000  0.9895334989999999
  0.8018482512500000  0.2162657530000000  0.9896242470000000
  0.7955032512500001  0.0000007500000000  0.7963382489999999
  0.5518970005000000  0.5335685014999999  0.4895334989999999
  0.5518970005000000  0.5335685015000000  0.7395334990000000
  0.2955032512500000  0.5000007500000000  0.0463382490000000
  0.3018482512500000  0.7162657529999999  0.2396242470000000
  0.5518482512500000  0.7162657529999999  0.4896242470000000
  0.3018970005000000  0.5335685015000000  0.2395334990000000
  0.4593972562500001  0.7141290010000000  0.0180957502500000
  0.4661269932500001  0.7499282510000000  0.2064337432500000
  0.7161269932500002  0.4999282510000000  0.7064337432500000
  0.2955032512500000  0.7500007500000000  0.2963382490000000
  0.3018970005000001  0.7835685014999999  0.4895334989999999
  0.5455032512500000  0.0000007500000000  0.7963382489999999
  0.5518482512500000  0.2162657530000000  0.9896242470000000
  0.5518970005000000  0.0335685015000000  0.9895334989999999
  0.7093972562499999  0.2141290010000000  0.7680957502499999
  0.5518970005000000  0.7835685014999999  0.2395334990000000
  0.7094485015000001  0.0359392502500000  0.7679820004999999
  0.7161269932500001  0.2499282510000000  0.9564337432499999
  0.7094485015000001  0.7859392502500000  0.5179820005000000
  0.7093972562500001  0.9641290010000000  0.0180957502500000
  0.7161269932500001  0.9999282509999999  0.7064337432500000
  0.7093972562499999  0.9641290009999998  0.5180957502500000
  0.5518482512500000  0.9662657529999999  0.7396242470000000
  0.5455032512500000  0.7500007500000000  0.5463382489999999
  0.5455032512500000  0.0000007500000000  0.5463382489999999
  0.5518482512500000  0.2162657530000000  0.7396242470000000
  0.7094485014999998  0.7859392502500000  0.0179820005000000
  0.5518970005000000  0.0335685015000000  0.7395334990000000
  0.7093972562500001  0.2141290010000000  0.5180957502500000
  0.7094485015000001  0.0359392502500000  0.5179820005000000
  0.7161269932500002  0.2499282510000000  0.7064337432500000
  0.5518970005000000  0.7835685014999999  0.7395334990000000
  0.5518482512500000  0.9662657529999999  0.2396242470000000
  0.5455032512500000  0.7500007500000000  0.0463382490000000
  0.7161269932500002  0.4999282509999999  0.2064337432500000
  0.7093972562499999  0.4641290010000000  0.5180957502500000
  0.5518970005000000  0.2835685015000000  0.7395334990000000
  0.7161269932499998  0.9999282509999999  0.4564337432500000
  0.5455032512500000  0.2500007500000000  0.2963382490000000
  0.5518482512499999  0.4662657530000000  0.4896242470000000
  0.5518970005000000  0.2835685015000000  0.4895334989999999
  0.7093972562499999  0.4641290010000000  0.2680957502500000
  0.7094485015000001  0.2859392502500000  0.2679820005000000
  0.7161269932500001  0.4999282510000000  0.4564337432500000
  0.7094485015000001  0.7859392502500000  0.2679820005000000
  0.5518482512500000  0.4662657529999999  0.7396242470000000
  0.7093972562499999  0.9641290010000001  0.2680957502500000
  0.5518970005000000  0.7835685014999999  0.4895334989999999
  0.5518482512499999  0.9662657530000001  0.4896242470000000
  0.5455032512500000  0.7500007500000000  0.2963382490000000
  0.5455032512500000  0.2500007500000000  0.5463382489999999
  0.5455032512500000  0.2500007500000000  0.0463382490000000
  0.5518482512500000  0.4662657530000000  0.2396242470000000
  0.5518970005000000  0.2835685015000000  0.2395334990000000
  0.7093972562500001  0.4641290010000000  0.0180957502500000
  0.7094485014999998  0.2859392502500000  0.0179820005000000
  0.7161269932500002  0.4999282510000000  0.9564337432499999
  0.7094485014999998  0.2859392502500000  0.7679820004999999
  0.7161269932500001  0.9999282509999999  0.9564337432499999
  0.5455032512500000  0.0000007500000000  0.2963382490000000
  0.4593972562500000  0.9641290010000000  0.7680957502499999
  0.4594485014999999  0.7859392502500001  0.7679820004999999
  0.4661269932500001  0.9999282509999999  0.9564337432499999
  0.9594485015000002  0.0359392502500000  0.0179820005000000
  0.9593972562500002  0.2141290010000000  0.0180957502500000
  0.8018970005000002  0.0335685015000000  0.2395334990000000
  0.8018482512500000  0.2162657530000000  0.2396242470000000
  0.7955032512500001  0.0000007500000000  0.0463382490000000
  0.7161269932500001  0.7499282510000000  0.2064337432500000
  0.2955032512500000  0.7500007500000000  0.5463382489999999
  0.3018482512500000  0.9662657529999999  0.7396242470000000
  0.7094485015000001  0.5359392502500000  0.0179820005000000
  0.3018970005000001  0.7835685014999999  0.7395334990000000
  0.4593972562500000  0.9641290009999998  0.5180957502500000
  0.4594485015000000  0.7859392502500000  0.5179820005000000
  0.4661269932500001  0.9999282509999999  0.7064337432500000
  0.7093972562500001  0.7141290010000000  0.0180957502500000
  0.5518970005000000  0.5335685015000000  0.2395334990000000
  0.9661269932500001  0.2499282510000000  0.4564337432500000
  0.7094485015000001  0.2859392502500000  0.5179820005000000
  0.3018482512500000  0.9662657530000001  0.4896242470000000
  0.3018970005000000  0.7835685015000000  0.9895334989999999
  0.4593972562500000  0.9641290010000001  0.2680957502500000
  0.3018482512500000  0.9662657529999999  0.9896242470000000
  0.9661269932500001  0.2499282510000000  0.2064337432500000
  0.5518482512500000  0.2162657530000000  0.4896242470000000
  0.5518970005000000  0.0335685015000000  0.4895334989999999
  0.7093972562500001  0.2141290010000000  0.2680957502500000
  0.7094485015000001  0.0359392502500000  0.2679820005000000
  0.7161269932500001  0.2499282510000000  0.4564337432500000
  0.7094485014999998  0.7859392502500001  0.7679820004999999
  0.7093972562499999  0.4641290010000000  0.7680957502499999
  0.7093972562499999  0.9641290010000000  0.7680957502499999
  0.5518970005000000  0.7835685015000000  0.9895334989999999
  0.5518482512500000  0.9662657529999999  0.9896242470000000
  0.5455032512500000  0.7500007500000001  0.7963382489999999
  0.5518970005000000  0.2835685015000000  0.9895334989999999
  0.5455032512500000  0.0000007500000000  0.0463382490000000
  0.5518482512500000  0.2162657530000000  0.2396242470000000
  0.5518482512500000  0.4662657530000000  0.9896242470000000
  0.5518970005000000  0.0335685015000000  0.2395334990000000
  0.7093972562500001  0.2141290010000000  0.0180957502500000
  0.7094485015000001  0.0359392502500000  0.0179820005000000
  0.7161269932500001  0.2499282510000000  0.2064337432500000
  0.5455032512500000  0.2500007500000000  0.7963382489999999
  0.7161269932500001  0.9999282509999999  0.2064337432500000
  0.2955032512500000  0.7500007500000001  0.7963382489999999
  0.5518482512500000  0.7162657530000001  0.7396242470000000
  0.4594485015000000  0.2859392502500000  0.2679820005000000
  0.9594485015000003  0.2859392502500000  0.2679820005000000
  0.7955032512500001  0.5000007500000000  0.7963382489999999
  0.0455032512500000  0.5000007500000000  0.0463382490000000
  0.0518482512500000  0.7162657529999999  0.2396242470000000
  0.0518970005000000  0.5335685015000000  0.2395334990000000
  0.2093972562500000  0.7141290010000000  0.0180957502500000
  0.2094485015000000  0.5359392502500000  0.0179820005000000
  0.2161269932500000  0.7499282510000000  0.2064337432500000
  0.9661269932500001  0.9999282509999999  0.2064337432500000
  0.0455032512500000  0.2500007500000000  0.7963382489999999
  0.0518482512500000  0.4662657530000000  0.9896242470000000
  0.0518970005000000  0.2835685015000000  0.9895334989999999
  0.2093972562500000  0.4641290010000000  0.7680957502499999
  0.2094485015000000  0.2859392502500000  0.7679820004999999
  0.2161269932500001  0.4999282510000000  0.9564337432499999
  0.9594485015000002  0.7859392502500000  0.0179820005000000
  0.9593972562500002  0.9641290010000000  0.0180957502500000
  0.8018970005000002  0.7835685014999999  0.2395334990000000
  0.8018482512500000  0.9662657529999999  0.2396242470000000
  0.7955032512500002  0.7500007500000000  0.0463382490000000
  0.0455032512500000  0.2500007500000000  0.5463382489999999
  0.0518482512500000  0.4662657529999999  0.7396242470000000
  0.0518970005000000  0.2835685015000000  0.7395334990000000
  0.2093972562500000  0.4641290010000000  0.5180957502500000
  0.8018482512500000  0.7162657529999998  0.9896242470000000
  0.8018970005000001  0.5335685014999999  0.9895334989999999
  0.9593972562500001  0.7141290009999999  0.7680957502499999
  0.9594485015000002  0.5359392502499999  0.7679820004999999
  0.0518482512500000  0.7162657529999998  0.9896242470000000
  0.0518970005000000  0.5335685014999999  0.9895334989999999
  0.2093972562500000  0.7141290009999999  0.7680957502499999
  0.2094485015000000  0.5359392502499999  0.7679820004999999
  0.2161269932500001  0.7499282509999998  0.9564337432499999
  0.9594485015000002  0.5359392502500000  0.5179820005000000
  0.9593972562500001  0.7141290010000000  0.5180957502500000
  0.8018970005000001  0.5335685015000000  0.7395334990000000
  0.8018482512500000  0.7162657530000001  0.7396242470000000
  0.7955032512500001  0.5000007500000000  0.5463382489999999
  0.0455032512500000  0.5000007500000000  0.5463382489999999
  0.2094485015000000  0.2859392502500000  0.5179820005000000
  0.0518482512500000  0.7162657530000001  0.7396242470000000
  0.0518970005000000  0.5335685015000000  0.7395334990000000
  0.2093972562500000  0.7141290010000000  0.5180957502500000
  0.2094485015000000  0.5359392502500000  0.5179820005000000
  0.2161269932500001  0.7499282510000000  0.7064337432500000
  0.9661269932500001  0.7499282509999998  0.9564337432499999
  0.0455032512500000  0.5000007500000000  0.2963382490000000
  0.0518482512500000  0.7162657529999999  0.4896242470000000
  0.0518970005000000  0.5335685014999999  0.4895334989999999
  0.2093972562500000  0.7141290010000000  0.2680957502500000
  0.2094485015000000  0.5359392502499999  0.2679820005000000
  0.2161269932500001  0.7499282509999998  0.4564337432500000
  0.4661269932500001  0.4999282510000000  0.4564337432500000
  0.2161269932500001  0.4999282510000000  0.7064337432500000
  0.9661269932500001  0.9999282509999999  0.4564337432500000
  0.0455032512500000  0.2500007500000000  0.2963382490000000
  0.0455032512500000  0.0000007500000000  0.5463382489999999
  0.0518482512500000  0.2162657530000000  0.7396242470000000
  0.0518970005000000  0.0335685015000000  0.7395334990000000
  0.2093972562500000  0.2141290010000000  0.5180957502500000
  0.2094485015000000  0.0359392502500000  0.5179820005000000
  0.2161269932500001  0.2499282510000000  0.7064337432500000
  0.9661269932500001  0.9999282509999999  0.9564337432499999
  0.0455032512500000  0.0000007500000000  0.2963382490000000
  0.0518482512500000  0.2162657530000000  0.4896242470000000
  0.0518970005000000  0.0335685015000000  0.4895334989999999
  0.2093972562500000  0.2141290010000000  0.2680957502500000
  0.7955032512500002  0.7500007500000000  0.5463382489999999
  0.2094485015000000  0.0359392502500000  0.2679820005000000
  0.9594485015000002  0.7859392502500001  0.7679820004999999
  0.9593972562500001  0.9641290010000000  0.7680957502499999
  0.8018970005000001  0.7835685015000000  0.9895334989999999
  0.8018482512500000  0.9662657529999999  0.9896242470000000
  0.7955032512500002  0.7500007500000001  0.7963382489999999
  0.0455032512500000  0.0000007500000000  0.0463382490000000
  0.0518482512500000  0.2162657530000000  0.2396242470000000
  0.0518970005000000  0.0335685015000000  0.2395334990000000
  0.2093972562500000  0.2141290010000000  0.0180957502500000
  0.2094485015000000  0.0359392502500000  0.0179820005000000
  0.2161269932500000  0.2499282510000000  0.2064337432500000
  0.2161269932500001  0.2499282510000000  0.4564337432500000
  0.0455032512500000  0.5000007500000000  0.7963382489999999
  0.8018482512500000  0.9662657529999999  0.7396242470000000
  0.9593972562500001  0.9641290009999998  0.5180957502500000
  0.0518482512500000  0.4662657530000000  0.4896242470000000
  0.0518970005000000  0.2835685015000000  0.4895334989999999
  0.2093972562500000  0.4641290010000000  0.2680957502500000
  0.2094485015000000  0.2859392502500000  0.2679820005000000
  0.2161269932500001  0.4999282510000000  0.4564337432500000
  0.9594485015000003  0.7859392502500000  0.2679820005000000
  0.9593972562500002  0.9641290010000001  0.2680957502500000
  0.8018970005000002  0.7835685014999999  0.4895334989999999
  0.8018482512500001  0.9662657530000001  0.4896242470000000
  0.7955032512500002  0.7500007500000000  0.2963382490000000
  0.0455032512500000  0.2500007500000000  0.0463382490000000
  0.8018970005000001  0.7835685014999999  0.7395334990000000
  0.0518482512500000  0.4662657530000000  0.2396242470000000
  0.2093972562500000  0.4641290010000000  0.0180957502500000
  0.2094485015000000  0.2859392502500000  0.0179820005000000
  0.2161269932500000  0.4999282509999999  0.2064337432500000
  0.9661269932500001  0.9999282509999999  0.7064337432500000
  0.0455032512500000  0.0000007500000000  0.7963382489999999
  0.0518482512500000  0.2162657530000000  0.9896242470000000
  0.0518970005000000  0.0335685015000000  0.9895334989999999
  0.2093972562500000  0.2141290010000000  0.7680957502499999
  0.2094485015000000  0.0359392502500000  0.7679820004999999
  0.2161269932500000  0.2499282510000000  0.9564337432499999
  0.9594485015000002  0.7859392502500000  0.5179820005000000
  0.0518970005000000  0.2835685015000000  0.2395334990000000
  0.9661269932500001  0.7499282510000000  0.7064337432500000
  0.5455032512500000  0.5000007500000000  0.5463382489999999
  0.9594485015000002  0.5359392502500000  0.0179820005000000
  0.4661269932500001  0.2499282510000000  0.9564337432499999
  0.4594485014999999  0.0359392502500000  0.7679820004999999
  0.3018970005000000  0.0335685015000000  0.2395334990000000
  0.4593972562500001  0.2141290010000000  0.7680957502499999
  0.3018970005000000  0.0335685015000000  0.9895334989999999
  0.3018482512500000  0.2162657530000000  0.9896242470000000
  0.4593972562500001  0.2141290010000000  0.0180957502500000
  0.4594485015000000  0.0359392502500000  0.0179820005000000
  0.4661269932500001  0.2499282510000000  0.2064337432500000
  0.2955032512500000  0.0000007500000000  0.7963382489999999
  0.9661269932500001  0.7499282510000000  0.2064337432500000
  0.0455032512500000  0.7500007500000001  0.7963382489999999
  0.0518482512500000  0.9662657529999999  0.9896242470000000
  0.0518970005000000  0.7835685015000000  0.9895334989999999
  0.2093972562500000  0.9641290010000000  0.7680957502499999
  0.2094485015000000  0.7859392502500001  0.7679820004999999
  0.2161269932500001  0.9999282509999999  0.9564337432499999
  0.4593972562500000  0.2141290010000000  0.5180957502500000
  0.9661269932500003  0.4999282510000000  0.7064337432500000
  0.3018482512500000  0.2162657530000000  0.2396242470000000
  0.9593972562500002  0.7141290010000000  0.0180957502500000
  0.2955032512500000  0.0000007500000000  0.0463382490000000
  0.8018482512500000  0.4662657530000000  0.9896242470000000
  0.4594485015000001  0.0359392502500000  0.5179820005000000
  0.3018482512500000  0.2162657530000000  0.7396242470000000
  0.4661269932500000  0.2499282510000000  0.7064337432500000
  0.2955032512500000  0.0000007500000000  0.5463382489999999
  0.7955032512500002  0.2500007500000000  0.5463382489999999
  0.8018482512500000  0.4662657529999999  0.7396242470000000
  0.8018970005000001  0.2835685015000000  0.7395334990000000
  0.9593972562500001  0.4641290010000000  0.5180957502500000
  0.9594485015000002  0.2859392502500000  0.5179820005000000
  0.9661269932500003  0.4999282510000000  0.9564337432499999
  0.2955032512500000  0.0000007500000000  0.2963382490000000
  0.3018482512500000  0.2162657530000000  0.4896242470000000
  0.3018970005000001  0.0335685015000000  0.4895334989999999
  0.4593972562500001  0.2141290010000000  0.2680957502500000
  0.4594485015000000  0.0359392502500000  0.2679820005000000
  0.4661269932500001  0.2499282510000000  0.4564337432500000
  0.9594485015000002  0.2859392502500000  0.7679820004999999
  0.9593972562500001  0.4641290010000000  0.7680957502499999
  0.8018970005000001  0.2835685015000000  0.9895334989999999
  0.7955032512500002  0.2500007500000000  0.7963382489999999
  0.8018970005000002  0.5335685015000000  0.2395334990000000
  0.3018970005000001  0.0335685015000000  0.7395334990000000
  0.0518970005000000  0.7835685014999999  0.2395334990000000
  0.0455032512500000  0.7500007500000000  0.2963382490000000
  0.8018970005000002  0.2835685015000000  0.4895334989999999
  0.2955032512500000  0.2500007500000000  0.0463382490000000
  0.8018482512500001  0.4662657530000000  0.4896242470000000
  0.0518482512500000  0.9662657529999999  0.2396242470000000
  0.8018482512500000  0.7162657529999999  0.2396242470000000
  0.0455032512500000  0.7500007500000000  0.0463382490000000
  0.9661269932500001  0.7499282509999998  0.4564337432500000
  0.0518482512500000  0.9662657530000001  0.4896242470000000
  0.2093972562500000  0.9641290010000001  0.2680957502500000
  0.7955032512500002  0.2500007500000000  0.2963382490000000
  0.2094485015000000  0.7859392502500000  0.2679820005000000
  0.2161269932500001  0.9999282509999999  0.4564337432500000
  0.7955032512500001  0.5000007500000000  0.2963382490000000
  0.9594485015000003  0.5359392502499999  0.2679820005000000
  0.9593972562500002  0.7141290010000000  0.2680957502500000
  0.0518970005000000  0.7835685014999999  0.4895334989999999
  0.3018482512500000  0.4662657530000000  0.2396242470000000
  0.8018482512500001  0.7162657529999999  0.4896242470000000
  0.9593972562500002  0.4641290010000000  0.2680957502500000
  0.4661269932500000  0.4999282509999999  0.2064337432500000
  0.4594485015000001  0.2859392502500000  0.0179820005000000
  0.0455032512500000  0.7500007500000000  0.5463382489999999
  0.0518482512500000  0.9662657529999999  0.7396242470000000
  0.4593972562500000  0.4641290010000000  0.0180957502500000
  0.8018970005000002  0.5335685014999999  0.4895334989999999
  0.7955032512500001  0.5000007500000000  0.0463382490000000
  0.0518970005000000  0.7835685014999999  0.7395334990000000
  0.2093972562500000  0.9641290009999998  0.5180957502500000
  0.2161269932500001  0.9999282509999999  0.2064337432500000
  0.2094485015000000  0.7859392502500000  0.0179820005000000
  0.2094485015000000  0.7859392502500000  0.5179820005000000
  0.2161269932500001  0.9999282509999999  0.7064337432500000
  0.2093972562500000  0.9641290010000000  0.0180957502500000
  0.3018970005000000  0.2835685015000000  0.2395334990000000
  0.8567007482500002  0.8749707489999999  0.9931522459999998
  0.9907245040000001  0.1250567435000000  0.8619367479999999
  0.8589650020000001  0.0000112500000000  0.8766355067499998
  0.8567007482500002  0.3749707490000000  0.4931522459999999
  0.7407245040000000  0.6250567435000000  0.6119367480000000
  0.6089650020000000  0.5000112499999999  0.6266355067499999
  0.7407245040000000  0.6250567435000000  0.8619367479999999
  0.6089650020000000  0.5000112499999999  0.8766355067499998
  0.6067007482500000  0.6249707489999999  0.9931522459999998
  0.9907245040000002  0.3750567435000000  0.1119367480000000
  0.8567007482500002  0.8749707489999999  0.7431522460000000
  0.8589650020000001  0.2500112500000000  0.1266355067500000
  0.8589650020000001  0.7500112499999999  0.6266355067499999
  0.9907245040000002  0.8750567434999998  0.6119367480000000
  0.8567007482500002  0.3749707489999999  0.2431522460000000
  0.9907245040000002  0.3750567435000001  0.3619367480000000
  0.8589650020000003  0.2500112500000000  0.3766355067500000
  0.6067007482500000  0.6249707489999999  0.7431522460000000
  0.8589650020000003  0.5000112499999999  0.3766355067500000
  0.8589650020000001  0.7500112499999999  0.1266355067500000
  0.9907245040000002  0.8750567434999998  0.3619367480000000
  0.6067007482500000  0.8749707489999999  0.7431522460000000
  0.6089650020000000  0.7500112499999999  0.6266355067499999
  0.7407245040000002  0.8750567434999998  0.6119367480000000
  0.9907245040000001  0.1250567435000000  0.3619367480000000
  0.8589650020000003  0.0000112500000000  0.3766355067500000
  0.8567007482500000  0.1249707490000000  0.4931522459999999
  0.8567007482500000  0.6249707489999999  0.2431522460000000
  0.8589650020000001  0.5000112499999999  0.1266355067500000
  0.8567007482500000  0.6249707489999999  0.9931522459999998
  0.9907245040000001  0.6250567435000000  0.1119367480000000
  0.8589650020000001  0.5000112499999999  0.6266355067499999
  0.8567007482500000  0.6249707489999999  0.7431522460000000
  0.6067007482500000  0.8749707489999999  0.9931522459999998
  0.7407245040000000  0.8750567435000001  0.8619367479999999
  0.9907245040000001  0.1250567435000000  0.1119367480000000
  0.8589650020000001  0.0000112500000000  0.1266355067500000
  0.8567007482500000  0.1249707490000000  0.2431522460000000
  0.9907245040000001  0.6250567435000000  0.3619367480000000