POSCAR_10x10x10_MAPI
 1.0000000000000000
    62.9012012479999925    0.0000000000000000    0.0000000000000000
     0.0007769400000000   62.7389001800000017    0.0000000000000000
    -0.3966757100000000   -0.0015379310000000   62.9691504160000051
   C   H   I   N  Pb
 1000 6000 3000 1000 1000
Direct
  0.0902779996000000  0.0999962986000000  0.0996335030000000
  0.9902779996000001  0.2999962986000000  0.1996335030000000
  0.5902779996000002  0.0999962986000000  0.9996335030000001
  0.1902779996000000  0.5999962986000000  0.7996335030000000
  0.7902779996000002  0.4999962986000001  0.5996335030000001
  0.5902779996000000  0.1999962986000000  0.0996335030000000
  0.1902779996000000  0.5999962986000000  0.6996335029999999
  0.9902779996000002  0.2999962986000001  0.2996335030000000
  0.5902779996000000  0.1999962986000000  0.1996335030000000
  0.1902779996000000  0.5999962986000000  0.5996335030000001
  0.7902779996000001  0.4999962986000001  0.4996335030000000
  0.5902779996000000  0.1999962986000000  0.2996335030000000
  0.1902779996000000  0.5999962986000000  0.4996335030000000
  0.9902779996000002  0.2999962986000000  0.3996335030000000
  0.5902779996000000  0.1999962986000001  0.3996335030000000
  0.1902779996000000  0.5999962986000001  0.3996335030000000
  0.7902779996000002  0.4999962986000001  0.3996335030000000
  0.5902779996000000  0.1999962986000000  0.4996335030000000
  0.1902779996000000  0.5999962986000000  0.2996335030000000
  0.9902779996000001  0.2999962986000000  0.4996335030000000
  0.5902779996000000  0.1999962986000000  0.5996335030000001
  0.1902779996000000  0.5999962986000000  0.1996335030000000
  0.1902779996000000  0.5999962986000001  0.8996335030000000
  0.7902779996000002  0.4999962986000001  0.2996335030000000
  0.5902779996000002  0.0999962986000000  0.8996335030000000
  0.1902779996000000  0.5999962986000000  0.9996335030000001
  0.1902779996000000  0.6999962986000002  0.6996335029999999
  0.9902779996000000  0.1999962986000001  0.7996335030000000
  0.5902779996000000  0.0999962986000000  0.1996335030000000
  0.1902779996000000  0.6999962986000000  0.5996335030000001
  0.7902779996000002  0.4999962986000001  0.9996335030000001
  0.5902779996000000  0.0999962986000000  0.2996335030000000
  0.1902779996000000  0.6999962986000000  0.4996335030000000
  0.9902779996000001  0.1999962986000000  0.8996335030000000
  0.5902779996000002  0.0999962986000000  0.3996335030000000
  0.1902779996000000  0.6999962986000002  0.3996335030000000
  0.7902779996000002  0.4999962986000001  0.8996335030000000
  0.5902779996000000  0.0999962986000000  0.4996335030000000
  0.1902779996000000  0.6999962986000000  0.2996335030000000
  0.9902779996000001  0.1999962986000000  0.9996335030000001
  0.5902779996000002  0.0999962986000000  0.5996335030000001
  0.1902779996000000  0.6999962986000002  0.1996335030000000
  0.7902779996000001  0.4999962986000001  0.7996335030000000
  0.5902779996000002  0.0999962986000000  0.6996335029999999
  0.1902779996000000  0.6999962986000002  0.0996335030000000
  0.9902779996000002  0.2999962986000000  0.0996335030000000
  0.5902779996000000  0.0999962986000000  0.7996335030000000
  0.7902779996000002  0.4999962986000001  0.6996335029999999
  0.5902779996000002  0.0999962986000000  0.0996335030000000
  0.5902779996000000  0.1999962986000000  0.6996335029999999
  0.9902779996000002  0.2999962986000000  0.5996335030000001
  0.1902779996000001  0.4999962986000001  0.1996335030000000
  0.7902779996000001  0.3999962986000001  0.7996335030000000
  0.5902779996000000  0.2999962986000001  0.6996335029999999
  0.1902779996000001  0.4999962986000001  0.0996335030000000
  0.9902779996000002  0.3999962986000001  0.0996335030000000
  0.5902779996000000  0.2999962986000000  0.7996335030000000
  0.1902779996000001  0.3999962986000001  0.9996335030000001
  0.7902779996000002  0.3999962986000001  0.6996335029999999
  0.5902779996000000  0.2999962986000000  0.8996335030000000
  0.1902779996000001  0.3999962986000001  0.8996335030000000
  0.9902779996000001  0.3999962986000001  0.1996335030000000
  0.5902779996000000  0.2999962986000000  0.9996335030000001
  0.1902779996000001  0.3999962986000001  0.7996335030000000
  0.7902779996000002  0.3999962986000001  0.5996335030000001
  0.5902779996000002  0.3999962986000001  0.0996335030000000
  0.1902779996000001  0.3999962986000001  0.6996335029999999
  0.9902779996000002  0.3999962986000001  0.2996335030000000
  0.5902779996000000  0.3999962986000001  0.1996335030000000
  0.1902779996000001  0.3999962986000001  0.5996335030000001
  0.7902779996000001  0.3999962986000001  0.4996335030000000
  0.5902779996000000  0.3999962986000001  0.2996335030000000
  0.5902779996000000  0.2999962986000000  0.5996335030000001
  0.1902779996000000  0.5999962986000001  0.0996335030000000
  0.9902779996000002  0.2999962986000000  0.9996335030000001
  0.5902779996000000  0.2999962986000000  0.4996335030000000
  0.5902779996000000  0.1999962986000001  0.7996335030000000
  0.1902779996000000  0.4999962986000001  0.9996335030000001
  0.7902779996000001  0.4999962986000001  0.1996335030000000
  0.5902779996000000  0.1999962986000000  0.8996335030000000
  0.1902779996000001  0.4999962986000001  0.8996335030000000
  0.9902779996000002  0.2999962986000001  0.6996335029999999
  0.5902779996000000  0.1999962986000000  0.9996335030000001
  0.1902779996000001  0.4999962986000001  0.7996335030000000
  0.7902779996000002  0.4999962986000001  0.0996335030000000
  0.5902779996000000  0.2999962986000000  0.0996335030000000
  0.1902779996000000  0.4999962986000001  0.6996335029999999
  0.9902779996000001  0.2999962986000000  0.7996335030000000
  0.5902779996000000  0.2999962986000000  0.1996335030000000
  0.1902779996000001  0.4999962986000001  0.5996335030000001
  0.7902779996000002  0.3999962986000001  0.9996335030000001
  0.5902779996000000  0.2999962986000001  0.2996335030000000
  0.1902779996000001  0.4999962986000001  0.4996335030000000
  0.9902779996000002  0.2999962986000000  0.8996335030000000
  0.5902779996000000  0.2999962986000000  0.3996335030000000
  0.1902779996000001  0.4999962986000001  0.3996335030000000
  0.7902779996000002  0.3999962986000001  0.8996335030000000
  0.1902779996000001  0.4999962986000001  0.2996335030000000
  0.1902779996000000  0.3999962986000001  0.4996335030000000
  0.3902779996000000  0.3999962986000001  0.3996335030000000
  0.4902779996000001  0.9999962986000003  0.9996335030000001
  0.1902779996000000  0.9999962986000003  0.1996335030000000
  0.7902779996000002  0.6999962986000000  0.2996335030000000
  0.4902779996000001  0.7999962986000001  0.6996335029999999
  0.1902779996000001  0.9999962986000003  0.0996335030000000
  0.9902779996000002  0.0999962986000000  0.5996335030000001
  0.4902779996000001  0.7999962986000000  0.7996335030000000
  0.1902779996000000  0.8999962986000002  0.9996335030000001
  0.7902779996000001  0.6999962986000002  0.1996335030000000
  0.4902779996000001  0.7999962986000001  0.8996335030000000
  0.1902779996000001  0.8999962986000002  0.8996335030000000
  0.9902779996000002  0.0999962986000000  0.6996335029999999
  0.4902779996000001  0.7999962986000001  0.9996335030000001
  0.1902779996000000  0.8999962986000001  0.7996335030000000
  0.7902779996000002  0.6999962986000002  0.0996335030000000
  0.4902779996000000  0.8999962986000002  0.0996335030000000
  0.1902779996000000  0.8999962986000002  0.6996335029999999
  0.9902779996000001  0.0999962986000000  0.7996335030000000
  0.4902779996000001  0.8999962986000002  0.1996335030000000
  0.1902779996000001  0.8999962986000001  0.5996335030000001
  0.7902779996000001  0.5999962986000000  0.9996335030000001
  0.4902779996000000  0.8999962986000001  0.2996335030000000
  0.4902779996000001  0.7999962986000000  0.5996335030000001
  0.1902779996000000  0.8999962986000001  0.4996335030000000
  0.9902779996000001  0.0999962986000000  0.4996335030000000
  0.4902779996000001  0.7999962986000000  0.4996335030000000
  0.4902779996000000  0.6999962986000000  0.7996335030000000
  0.1902779996000000  0.9999962986000003  0.9996335030000001
  0.7902779996000002  0.6999962986000002  0.6996335029999999
  0.4902779996000001  0.6999962986000002  0.8996335030000000
  0.1902779996000001  0.9999962986000003  0.8996335030000000
  0.9902779996000001  0.0999962986000000  0.1996335030000000
  0.4902779996000000  0.6999962986000002  0.9996335030000001
  0.1902779996000001  0.9999962986000001  0.7996335030000000
  0.7902779996000002  0.6999962986000000  0.5996335030000001
  0.4902779996000001  0.7999962986000001  0.0996335030000000
  0.1902779996000000  0.9999962986000003  0.6996335029999999
  0.9902779996000002  0.0999962986000000  0.2996335030000000
  0.4902779996000001  0.7999962986000001  0.1996335030000000
  0.1902779996000000  0.9999962986000001  0.5996335030000001
  0.7902779996000001  0.6999962986000000  0.4996335030000000
  0.4902779996000001  0.7999962986000000  0.2996335030000000
  0.1902779996000000  0.9999962986000001  0.4996335030000000
  0.9902779996000002  0.0999962986000000  0.3996335030000000
  0.4902779996000001  0.7999962986000001  0.3996335030000000
  0.1902779996000001  0.9999962986000003  0.3996335030000000
  0.7902779996000002  0.6999962986000002  0.3996335030000000
  0.1902779996000000  0.9999962986000001  0.2996335030000000
  0.1902779996000000  0.6999962986000000  0.7996335030000000
  0.9902779996000002  0.0999962986000000  0.8996335030000000
  0.1902779996000000  0.8999962986000002  0.3996335030000000
  0.4902779996000001  0.9999962986000001  0.2996335030000000
  0.1902779996000000  0.7999962986000000  0.4996335030000000
  0.9902779996000001  0.1999962986000001  0.3996335030000000
  0.4902779996000001  0.9999962986000003  0.3996335030000000
  0.1902779996000001  0.7999962986000001  0.3996335030000000
  0.7902779996000001  0.5999962986000001  0.3996335030000000
  0.4902779996000001  0.9999962986000001  0.4996335030000000
  0.1902779996000000  0.7999962986000000  0.2996335030000000
  0.9902779996000000  0.1999962986000000  0.4996335030000000
  0.4902779996000001  0.9999962986000001  0.5996335030000001
  0.1902779996000000  0.7999962986000001  0.1996335030000000
  0.7902779996000001  0.5999962986000000  0.2996335030000000
  0.4902779996000001  0.9999962986000003  0.6996335029999999
  0.1902779996000001  0.7999962986000001  0.0996335030000000
  0.9902779996000001  0.1999962986000000  0.5996335030000001
  0.4902779996000001  0.9999962986000001  0.7996335030000000
  0.1902779996000000  0.6999962986000002  0.9996335030000001
  0.7902779996000000  0.5999962986000000  0.1996335030000000
  0.4902779996000001  0.9999962986000003  0.8996335030000000
  0.1902779996000001  0.6999962986000002  0.8996335030000000
  0.9902779996000001  0.1999962986000000  0.6996335029999999
  0.7902779996000000  0.5999962986000000  0.4996335030000000
  0.4902779996000000  0.8999962986000002  0.3996335030000000
  0.1902779996000000  0.7999962986000000  0.5996335030000001
  0.9902779996000001  0.1999962986000000  0.2996335030000000
  0.7902779996000001  0.5999962986000001  0.8996335030000000
  0.4902779996000001  0.8999962986000001  0.4996335030000000
  0.1902779996000001  0.8999962986000001  0.2996335030000000
  0.9902779996000002  0.0999962986000000  0.9996335030000001
  0.4902779996000001  0.8999962986000001  0.5996335030000001
  0.1902779996000000  0.8999962986000002  0.1996335030000000
  0.7902779996000000  0.5999962986000000  0.7996335030000000
  0.4902779996000000  0.8999962986000002  0.6996335029999999
  0.1902779996000000  0.8999962986000002  0.0996335030000000
  0.9902779996000001  0.1999962986000000  0.0996335030000000
  0.4902779996000000  0.8999962986000001  0.7996335030000000
  0.1902779996000000  0.7999962986000001  0.9996335030000001
  0.7902779996000001  0.5999962986000000  0.6996335029999999
  0.4902779996000001  0.8999962986000002  0.8996335030000000
  0.1902779996000001  0.7999962986000001  0.8996335030000000
  0.9902779996000000  0.1999962986000000  0.1996335030000000
  0.4902779996000000  0.8999962986000002  0.9996335030000001
  0.1902779996000001  0.7999962986000000  0.7996335030000000
  0.7902779996000001  0.5999962986000000  0.5996335030000001
  0.4902779996000001  0.9999962986000003  0.0996335030000000
  0.1902779996000000  0.7999962986000001  0.6996335029999999
  0.4902779996000001  0.9999962986000003  0.1996335030000000
  0.9902779996000002  0.0999962986000000  0.0996335030000000
  0.9902779996000002  0.3999962986000001  0.3996335030000000
  0.1902779996000001  0.3999962986000001  0.3996335030000000
  0.0902779996000000  0.9999962986000003  0.1996335030000000
  0.7902779996000001  0.1999962986000000  0.2996335030000000
  0.5902779996000002  0.7999962986000001  0.6996335029999999
  0.0902779996000000  0.9999962986000003  0.0996335030000000
  0.9902779996000001  0.5999962986000000  0.5996335030000001
  0.5902779996000000  0.7999962986000000  0.7996335030000000
  0.0902779996000000  0.8999962986000002  0.9996335030000001
  0.7902779996000000  0.1999962986000000  0.1996335030000000
  0.5902779996000002  0.7999962986000001  0.8996335030000000
  0.0902779996000000  0.8999962986000002  0.8996335030000000
  0.9902779996000001  0.5999962986000000  0.6996335029999999
  0.5902779996000002  0.7999962986000001  0.9996335030000001
  0.0902779996000000  0.8999962986000001  0.7996335030000000
  0.7902779996000001  0.1999962986000000  0.0996335030000000
  0.5902779996000002  0.8999962986000002  0.0996335030000000
  0.0902779996000000  0.8999962986000002  0.6996335029999999
  0.9902779996000000  0.5999962986000000  0.7996335030000000
  0.5902779996000000  0.8999962986000002  0.1996335030000000
  0.0902779996000000  0.8999962986000001  0.5996335030000001
  0.7902779996000002  0.0999962986000000  0.9996335030000001
  0.5902779996000000  0.8999962986000001  0.2996335030000000
  0.5902779996000002  0.7999962986000000  0.5996335030000001
  0.0902779996000000  0.8999962986000001  0.4996335030000000
  0.9902779996000000  0.5999962986000000  0.4996335030000000
  0.5902779996000000  0.7999962986000000  0.4996335030000000
  0.5902779996000000  0.6999962986000000  0.7996335030000000
  0.0902779996000000  0.9999962986000003  0.9996335030000001
  0.7902779996000001  0.1999962986000000  0.6996335029999999
  0.5902779996000000  0.6999962986000002  0.8996335030000000
  0.0902779996000000  0.9999962986000003  0.8996335030000000
  0.9902779996000000  0.5999962986000000  0.1996335030000000
  0.5902779996000000  0.6999962986000002  0.9996335030000001
  0.0902779996000000  0.9999962986000001  0.7996335030000000
  0.7902779996000001  0.1999962986000000  0.5996335030000001
  0.5902779996000002  0.7999962986000001  0.0996335030000000
  0.0902779996000000  0.9999962986000003  0.6996335029999999
  0.9902779996000001  0.5999962986000000  0.2996335030000000
  0.5902779996000000  0.7999962986000001  0.1996335030000000
  0.0902779996000000  0.9999962986000001  0.5996335030000001
  0.7902779996000000  0.1999962986000000  0.4996335030000000
  0.5902779996000000  0.7999962986000000  0.2996335030000000
  0.0902779996000000  0.9999962986000001  0.4996335030000000
  0.9902779996000001  0.5999962986000001  0.3996335030000000
  0.5902779996000002  0.7999962986000001  0.3996335030000000
  0.0902779996000000  0.9999962986000003  0.3996335030000000
  0.7902779996000001  0.1999962986000001  0.3996335030000000
  0.0902779996000000  0.9999962986000001  0.2996335030000000
  0.9902779996000001  0.5999962986000001  0.0996335030000000
  0.9902779996000001  0.5999962986000001  0.8996335030000000
  0.0902779996000000  0.8999962986000002  0.3996335030000000
  0.5902779996000000  0.9999962986000001  0.2996335030000000
  0.0902779996000000  0.7999962986000000  0.4996335030000000
  0.9902779996000002  0.6999962986000002  0.3996335030000000
  0.5902779996000000  0.9999962986000003  0.3996335030000000
  0.0902779996000000  0.7999962986000001  0.3996335030000000
  0.7902779996000002  0.0999962986000000  0.3996335030000000
  0.5902779996000000  0.9999962986000001  0.4996335030000000
  0.0902779996000000  0.7999962986000000  0.2996335030000000
  0.9902779996000001  0.6999962986000000  0.4996335030000000
  0.5902779996000000  0.9999962986000001  0.5996335030000001
  0.0902779996000000  0.7999962986000001  0.1996335030000000
  0.7902779996000002  0.0999962986000000  0.2996335030000000
  0.5902779996000000  0.9999962986000003  0.6996335029999999
  0.0902779996000000  0.7999962986000001  0.0996335030000000
  0.9902779996000002  0.6999962986000000  0.5996335030000001
  0.5902779996000000  0.9999962986000001  0.7996335030000000
  0.0902779996000000  0.6999962986000002  0.9996335030000001
  0.7902779996000001  0.0999962986000000  0.1996335030000000
  0.5902779996000000  0.9999962986000003  0.8996335030000000
  0.0902779996000000  0.6999962986000002  0.8996335030000000
  0.9902779996000002  0.6999962986000002  0.6996335029999999
  0.7902779996000001  0.0999962986000000  0.4996335030000000
  0.5902779996000002  0.8999962986000002  0.3996335030000000
  0.0902779996000000  0.7999962986000000  0.5996335030000001
  0.9902779996000002  0.6999962986000000  0.2996335030000000
  0.7902779996000002  0.0999962986000000  0.8996335030000000
  0.5902779996000000  0.8999962986000001  0.4996335030000000
  0.0902779996000000  0.8999962986000001  0.2996335030000000
  0.9902779996000001  0.5999962986000000  0.9996335030000001
  0.5902779996000002  0.8999962986000001  0.5996335030000001
  0.0902779996000000  0.8999962986000002  0.1996335030000000
  0.7902779996000001  0.0999962986000000  0.7996335030000000
  0.5902779996000002  0.8999962986000002  0.6996335029999999
  0.0902779996000000  0.8999962986000002  0.0996335030000000
  0.9902779996000002  0.6999962986000002  0.0996335030000000
  0.5902779996000000  0.8999962986000001  0.7996335030000000
  0.0902779996000000  0.7999962986000001  0.9996335030000001
  0.7902779996000002  0.0999962986000000  0.6996335029999999
  0.5902779996000002  0.8999962986000002  0.8996335030000000
  0.0902779996000000  0.7999962986000001  0.8996335030000000
  0.9902779996000001  0.6999962986000002  0.1996335030000000
  0.5902779996000002  0.8999962986000002  0.9996335030000001
  0.0902779996000000  0.7999962986000000  0.7996335030000000
  0.7902779996000002  0.0999962986000000  0.5996335030000001
  0.5902779996000000  0.9999962986000003  0.0996335030000000
  0.0902779996000000  0.7999962986000001  0.6996335029999999
  0.5902779996000000  0.9999962986000003  0.1996335030000000
  0.5902779996000002  0.3999962986000001  0.3996335030000000
  0.1902779996000001  0.0999962986000000  0.0996335030000000
  0.7902779996000000  0.1999962986000001  0.7996335030000000
  0.5902779996000000  0.4999962986000001  0.2996335030000000
  0.1902779996000000  0.2999962986000000  0.4996335030000000
  0.9902779996000002  0.3999962986000001  0.8996335030000000
  0.5902779996000002  0.4999962986000001  0.3996335030000000
  0.1902779996000001  0.2999962986000000  0.3996335030000000
  0.7902779996000002  0.2999962986000000  0.8996335030000000
  0.5902779996000000  0.4999962986000001  0.4996335030000000
  0.1902779996000000  0.2999962986000001  0.2996335030000000
  0.9902779996000002  0.3999962986000001  0.9996335030000001
  0.5902779996000002  0.4999962986000001  0.5996335030000001
  0.1902779996000000  0.2999962986000000  0.1996335030000000
  0.7902779996000001  0.2999962986000000  0.7996335030000000
  0.5902779996000002  0.4999962986000001  0.6996335029999999
  0.1902779996000001  0.2999962986000000  0.0996335030000000
  0.9902779996000002  0.4999962986000001  0.0996335030000000
  0.5902779996000000  0.4999962986000001  0.7996335030000000
  0.1902779996000000  0.1999962986000000  0.9996335030000001
  0.7902779996000002  0.2999962986000001  0.6996335029999999
  0.5902779996000002  0.4999962986000001  0.8996335030000000
  0.1902779996000001  0.1999962986000000  0.8996335030000000
  0.9902779996000001  0.4999962986000001  0.1996335030000000
  0.7902779996000002  0.2999962986000000  0.9996335030000001
  0.5902779996000002  0.4999962986000001  0.9996335030000001
  0.1902779996000000  0.2999962986000000  0.5996335030000001
  0.9902779996000001  0.3999962986000001  0.7996335030000000
  0.7902779996000002  0.3999962986000001  0.3996335030000000
  0.5902779996000000  0.3999962986000001  0.4996335030000000
  0.1902779996000001  0.3999962986000001  0.2996335030000000
  0.9902779996000001  0.3999962986000001  0.4996335030000000
  0.5902779996000002  0.3999962986000001  0.5996335030000001
  0.1902779996000000  0.3999962986000001  0.1996335030000000
  0.7902779996000002  0.3999962986000001  0.2996335030000000
  0.5902779996000002  0.3999962986000001  0.6996335029999999
  0.1902779996000001  0.3999962986000001  0.0996335030000000
  0.9902779996000002  0.3999962986000001  0.5996335030000001
  0.5902779996000000  0.3999962986000001  0.7996335030000000
  0.1902779996000000  0.2999962986000000  0.9996335030000001
  0.7902779996000001  0.3999962986000001  0.1996335030000000
  0.5902779996000002  0.3999962986000001  0.8996335030000000
  0.1902779996000001  0.2999962986000000  0.8996335030000000
  0.9902779996000002  0.3999962986000001  0.6996335029999999
  0.5902779996000002  0.3999962986000001  0.9996335030000001
  0.1902779996000001  0.2999962986000000  0.7996335030000000
  0.7902779996000002  0.3999962986000001  0.0996335030000000
  0.5902779996000002  0.4999962986000001  0.0996335030000000
  0.1902779996000000  0.2999962986000001  0.6996335029999999
  0.5902779996000000  0.4999962986000001  0.1996335030000000
  0.5902779996000000  0.6999962986000002  0.6996335029999999
  0.1902779996000000  0.1999962986000001  0.7996335030000000
  0.5902779996000000  0.5999962986000001  0.0996335030000000
  0.9902779996000002  0.4999962986000001  0.6996335029999999
  0.5902779996000000  0.5999962986000000  0.9996335030000001
  0.1902779996000001  0.0999962986000000  0.7996335030000000
  0.7902779996000002  0.2999962986000000  0.0996335030000000
  0.5902779996000000  0.6999962986000002  0.0996335030000000
  0.1902779996000000  0.0999962986000000  0.6996335029999999
  0.9902779996000001  0.4999962986000001  0.7996335030000000
  0.5902779996000000  0.6999962986000002  0.1996335030000000
  0.1902779996000000  0.0999962986000000  0.5996335030000001
  0.7902779996000001  0.1999962986000000  0.9996335030000001
  0.5902779996000000  0.6999962986000000  0.2996335030000000
  0.1902779996000000  0.0999962986000000  0.4996335030000000
  0.9902779996000002  0.4999962986000001  0.8996335030000000
  0.5902779996000000  0.6999962986000002  0.3996335030000000
  0.1902779996000001  0.0999962986000000  0.3996335030000000
  0.7902779996000001  0.1999962986000000  0.8996335030000000
  0.5902779996000000  0.6999962986000000  0.4996335030000000
  0.1902779996000000  0.0999962986000000  0.2996335030000000
  0.9902779996000002  0.4999962986000001  0.9996335030000001
  0.5902779996000000  0.6999962986000000  0.5996335030000001
  0.1902779996000000  0.0999962986000000  0.1996335030000000
  0.1902779996000001  0.0999962986000000  0.8996335030000000
  0.7902779996000002  0.2999962986000000  0.5996335030000001
  0.5902779996000000  0.5999962986000001  0.8996335030000000
  0.1902779996000000  0.0999962986000000  0.9996335030000001
  0.1902779996000000  0.1999962986000000  0.6996335029999999
  0.9902779996000002  0.4999962986000001  0.2996335030000000
  0.5902779996000000  0.5999962986000000  0.1996335030000000
  0.1902779996000001  0.1999962986000000  0.5996335030000001
  0.7902779996000001  0.2999962986000000  0.4996335030000000
  0.5902779996000000  0.5999962986000000  0.2996335030000000
  0.1902779996000000  0.1999962986000000  0.4996335030000000
  0.9902779996000002  0.4999962986000001  0.3996335030000000
  0.5902779996000000  0.5999962986000001  0.3996335030000000
  0.1902779996000000  0.1999962986000001  0.3996335030000000
  0.7902779996000002  0.2999962986000000  0.3996335030000000
  0.5902779996000000  0.5999962986000000  0.4996335030000000
  0.1902779996000001  0.1999962986000000  0.2996335030000000
  0.9902779996000001  0.4999962986000001  0.4996335030000000
  0.5902779996000000  0.5999962986000000  0.5996335030000001
  0.1902779996000000  0.1999962986000000  0.1996335030000000
  0.7902779996000002  0.2999962986000001  0.2996335030000000
  0.5902779996000000  0.5999962986000000  0.6996335029999999
  0.1902779996000000  0.1999962986000000  0.0996335030000000
  0.9902779996000002  0.4999962986000001  0.5996335030000001
  0.5902779996000000  0.5999962986000000  0.7996335030000000
  0.7902779996000001  0.2999962986000000  0.1996335030000000
  0.5902779996000000  0.9999962986000003  0.9996335030000001
  0.2902779996000000  0.0999962986000000  0.0996335030000000
  0.7902779996000001  0.6999962986000000  0.7996335030000000
  0.2902779996000001  0.9999962986000003  0.1996335030000000
  0.8902779996000001  0.1999962986000000  0.2996335030000000
  0.3902779996000000  0.7999962986000001  0.6996335029999999
  0.2902779996000000  0.9999962986000003  0.0996335030000000
  0.8902779996000001  0.5999962986000000  0.5996335030000001
  0.3902779996000000  0.7999962986000000  0.7996335030000000
  0.2902779996000000  0.8999962986000002  0.9996335030000001
  0.8902779996000000  0.1999962986000000  0.1996335030000000
  0.3902779996000001  0.7999962986000001  0.8996335030000000
  0.2902779996000000  0.8999962986000002  0.8996335030000000
  0.8902779996000001  0.5999962986000000  0.6996335029999999
  0.3902779996000000  0.7999962986000001  0.9996335030000001
  0.2902779996000000  0.8999962986000001  0.7996335030000000
  0.8902779996000001  0.1999962986000000  0.0996335030000000
  0.3902779996000000  0.8999962986000002  0.0996335030000000
  0.2902779996000000  0.8999962986000002  0.6996335029999999
  0.8902779996000000  0.5999962986000000  0.7996335030000000
  0.3902779996000000  0.8999962986000002  0.1996335030000000
  0.2902779996000000  0.8999962986000001  0.5996335030000001
  0.8902779996000002  0.0999962986000000  0.9996335030000001
  0.3902779996000000  0.8999962986000001  0.2996335030000000
  0.3902779996000001  0.7999962986000000  0.5996335030000001
  0.2902779996000001  0.8999962986000001  0.4996335030000000
  0.8902779996000000  0.5999962986000000  0.4996335030000000
  0.3902779996000001  0.7999962986000000  0.4996335030000000
  0.3902779996000000  0.6999962986000000  0.7996335030000000
  0.2902779996000001  0.9999962986000003  0.9996335030000001
  0.8902779996000001  0.1999962986000000  0.6996335029999999
  0.3902779996000000  0.6999962986000002  0.8996335030000000
  0.2902779996000001  0.9999962986000003  0.8996335030000000
  0.8902779996000000  0.5999962986000000  0.1996335030000000
  0.3902779996000000  0.6999962986000002  0.9996335030000001
  0.2902779996000000  0.9999962986000001  0.7996335030000000
  0.8902779996000001  0.1999962986000000  0.5996335030000001
  0.3902779996000000  0.7999962986000001  0.0996335030000000
  0.2902779996000000  0.9999962986000003  0.6996335029999999
  0.8902779996000001  0.5999962986000000  0.2996335030000000
  0.3902779996000001  0.7999962986000001  0.1996335030000000
  0.2902779996000001  0.9999962986000001  0.5996335030000001
  0.8902779996000000  0.1999962986000000  0.4996335030000000
  0.3902779996000000  0.7999962986000000  0.2996335030000000
  0.2902779996000001  0.9999962986000001  0.4996335030000000
  0.8902779996000001  0.5999962986000001  0.3996335030000000
  0.3902779996000000  0.7999962986000001  0.3996335030000000
  0.2902779996000000  0.9999962986000003  0.3996335030000000
  0.8902779996000001  0.1999962986000001  0.3996335030000000
  0.2902779996000001  0.9999962986000001  0.2996335030000000
  0.8902779996000001  0.5999962986000001  0.0996335030000000
  0.8902779996000001  0.5999962986000001  0.8996335030000000
  0.2902779996000000  0.8999962986000002  0.3996335030000000
  0.3902779996000000  0.9999962986000001  0.2996335030000000
  0.2902779996000001  0.7999962986000000  0.4996335030000000
  0.8902779996000002  0.6999962986000002  0.3996335030000000
  0.3902779996000000  0.9999962986000003  0.3996335030000000
  0.2902779996000000  0.7999962986000001  0.3996335030000000
  0.8902779996000002  0.0999962986000000  0.3996335030000000
  0.3902779996000001  0.9999962986000001  0.4996335030000000
  0.2902779996000001  0.7999962986000000  0.2996335030000000
  0.8902779996000001  0.6999962986000000  0.4996335030000000
  0.3902779996000001  0.9999962986000001  0.5996335030000001
  0.2902779996000001  0.7999962986000001  0.1996335030000000
  0.8902779996000002  0.0999962986000000  0.2996335030000000
  0.3902779996000000  0.9999962986000003  0.6996335029999999
  0.2902779996000000  0.7999962986000001  0.0996335030000000
  0.8902779996000002  0.6999962986000000  0.5996335030000001
  0.3902779996000000  0.9999962986000001  0.7996335030000000
  0.2902779996000000  0.6999962986000002  0.9996335030000001
  0.8902779996000001  0.0999962986000000  0.1996335030000000
  0.3902779996000001  0.9999962986000003  0.8996335030000000
  0.2902779996000000  0.6999962986000002  0.8996335030000000
  0.8902779996000002  0.6999962986000002  0.6996335029999999
  0.8902779996000001  0.0999962986000000  0.4996335030000000
  0.3902779996000000  0.8999962986000002  0.3996335030000000
  0.2902779996000001  0.7999962986000000  0.5996335030000001
  0.8902779996000002  0.6999962986000000  0.2996335030000000
  0.8902779996000002  0.0999962986000000  0.8996335030000000
  0.3902779996000000  0.8999962986000001  0.4996335030000000
  0.2902779996000000  0.8999962986000001  0.2996335030000000
  0.8902779996000001  0.5999962986000000  0.9996335030000001
  0.3902779996000000  0.8999962986000001  0.5996335030000001
  0.2902779996000000  0.8999962986000002  0.1996335030000000
  0.8902779996000001  0.0999962986000000  0.7996335030000000
  0.3902779996000000  0.8999962986000002  0.6996335029999999
  0.2902779996000000  0.8999962986000002  0.0996335030000000
  0.8902779996000002  0.6999962986000002  0.0996335030000000