POSCAR_4x4x4_FAPI
 1.0000000000000000
    25.6298408508000009    0.0000000000000000    0.0000000000000000
     0.0000033372000000   25.0624809263999992    0.0000000000000000
     0.0000000000000000    0.0000000000000000   25.3502807616000005
   C   H   I   N  Pb
  64 320 192 128  64
Direct
  0.1250002532500000  0.1301449985000000  0.1250000000000000
  0.8750002532499999  0.1301449985000000  0.6250000000000000
  0.3750002532500000  0.3801449984999999  0.1250000000000000
  0.3750002532500000  0.1301449985000000  0.8750000000000000
  0.3750002532500000  0.1301449985000000  0.6250000000000000
  0.8750002532499999  0.3801449984999999  0.1250000000000000
  0.3750002532500000  0.1301449985000000  0.3750000000000000
  0.8750002532499999  0.3801449984999999  0.3750000000000000
  0.3750002532500000  0.1301449985000000  0.1250000000000000
  0.1250002532500000  0.8801449984999999  0.8750000000000000
  0.8750002532499999  0.3801449984999999  0.6250000000000000
  0.1250002532500000  0.8801449984999999  0.6250000000000000
  0.3750002532500000  0.3801449984999999  0.3750000000000000
  0.8750002532499999  0.3801449984999999  0.8750000000000000
  0.1250002532500000  0.8801449984999999  0.1250000000000000
  0.8750002532499999  0.6301449984999999  0.1250000000000000
  0.1250002532500000  0.6301449984999999  0.8750000000000000
  0.8750002532499999  0.6301449984999999  0.3750000000000000
  0.1250002532500000  0.6301449984999999  0.6250000000000000
  0.1250002532500000  0.6301449984999999  0.3750000000000000
  0.8750002532499999  0.6301449984999999  0.6250000000000000
  0.1250002532500000  0.6301449984999999  0.1250000000000000
  0.8750002532499999  0.6301449984999999  0.8750000000000000
  0.1250002532500000  0.3801449984999999  0.8750000000000000
  0.1250002532500000  0.3801449984999999  0.6250000000000000
  0.1250002532500000  0.8801449984999999  0.3750000000000000
  0.3750002532500000  0.3801449984999999  0.6250000000000000
  0.8750002532499999  0.1301449985000000  0.3750000000000000
  0.3750002532500000  0.3801449984999999  0.8750000000000000
  0.6250002532500000  0.3801449984999999  0.6250000000000000
  0.6250002532500000  0.3801449984999999  0.8750000000000000
  0.6250002532500000  0.3801449984999999  0.3750000000000000
  0.6250002532500000  0.3801449984999999  0.1250000000000000
  0.6250002532500000  0.6301449984999999  0.1250000000000000
  0.6250002532500000  0.1301449985000000  0.8750000000000000
  0.6250002532500000  0.6301449984999999  0.3750000000000000
  0.6250002532500000  0.1301449985000000  0.6250000000000000
  0.6250002532500000  0.1301449985000000  0.3750000000000000
  0.6250002532500000  0.6301449984999999  0.6250000000000000
  0.6250002532500000  0.1301449985000000  0.1250000000000000
  0.6250002532500000  0.6301449984999999  0.8750000000000000
  0.3750002532500000  0.8801449984999999  0.8750000000000000
  0.3750002532500000  0.8801449984999999  0.6250000000000000
  0.6250002532500000  0.8801449984999999  0.1250000000000000
  0.3750002532500000  0.8801449984999999  0.3750000000000000
  0.6250002532500000  0.8801449984999999  0.3750000000000000
  0.3750002532500000  0.8801449984999999  0.1250000000000000
  0.3750002532500000  0.6301449984999999  0.8750000000000000
  0.6250002532500000  0.8801449984999999  0.6250000000000000
  0.3750002532500000  0.6301449984999999  0.6250000000000000
  0.6250002532500000  0.8801449984999999  0.8750000000000000
  0.3750002532500000  0.6301449984999999  0.3750000000000000
  0.3750002532500000  0.6301449984999999  0.1250000000000000
  0.8750002532499999  0.1301449985000000  0.1250000000000000
  0.8750002532499999  0.8801449984999999  0.1250000000000000
  0.1250002532500000  0.3801449984999999  0.3750000000000000
  0.8750002532499999  0.1301449985000000  0.8750000000000000
  0.1250002532500000  0.1301449985000000  0.8750000000000000
  0.8750002532499999  0.8801449984999999  0.6250000000000000
  0.1250002532500000  0.3801449984999999  0.1250000000000000
  0.1250002532500000  0.1301449985000000  0.6250000000000000
  0.1250002532500000  0.1301449985000000  0.3750000000000000
  0.8750002532499999  0.8801449984999999  0.8750000000000000
  0.8750002532499999  0.8801449984999999  0.3750000000000000
  0.3245062530000000  0.3158475012500000  0.3750000000000000
  0.4529455005000000  0.6301189960000000  0.6250000000000000
  0.3750000000000001  0.6739369930000000  0.6250000000000000
  0.7029455004999999  0.8801189960000000  0.6250000000000000
  0.6754937470000000  0.8158475012500001  0.6250000000000000
  0.5745062530000000  0.8158475012500001  0.6250000000000000
  0.5470544995000001  0.8801189960000000  0.6250000000000000
  0.3245062530000000  0.5658475012499999  0.3750000000000000
  0.4254937470000001  0.5658475012499999  0.3750000000000000
  0.4529455005000000  0.6301189960000000  0.3750000000000000
  0.3750000000000001  0.6739369930000000  0.3750000000000000
  0.7970544994999998  0.8801189960000000  0.6250000000000000
  0.8245062529999998  0.8158475012500001  0.6250000000000000
  0.6250000000000000  0.9239369930000000  0.8750000000000000
  0.7029455004999999  0.8801189960000000  0.8750000000000000
  0.6754937470000000  0.8158475012500001  0.8750000000000000
  0.2970544995000000  0.6301189960000000  0.3750000000000000
  0.4254937470000001  0.5658475012499999  0.6250000000000000
  0.2970544995000000  0.6301189960000000  0.6250000000000000
  0.6250000000000000  0.9239369930000000  0.6250000000000000
  0.2970544995000000  0.8801189960000000  0.1250000000000000
  0.3245062530000000  0.8158475012500001  0.1250000000000000
  0.4254937470000001  0.8158475012500001  0.1250000000000000
  0.4529455005000000  0.8801189960000000  0.1250000000000000
  0.3750000000000001  0.9239369930000000  0.1250000000000000
  0.1754937470000000  0.0658475012500000  0.3750000000000000
  0.0745062530000000  0.0658475012500000  0.3750000000000000
  0.6250000000000000  0.9239369930000000  0.3750000000000000
  0.3245062530000000  0.5658475012499999  0.6250000000000000
  0.7029455004999999  0.8801189960000000  0.3750000000000000
  0.5745062530000000  0.8158475012500001  0.3750000000000000
  0.2970544995000000  0.6301189960000000  0.8750000000000000
  0.3245062530000000  0.5658475012499999  0.8750000000000000
  0.4254937470000001  0.5658475012499999  0.8750000000000000
  0.4529455005000000  0.6301189960000000  0.8750000000000000
  0.3750000000000001  0.6739369930000000  0.8750000000000000
  0.5470544995000001  0.8801189960000000  0.3750000000000000
  0.0470544995000000  0.1301189960000000  0.3750000000000000
  0.6754937470000000  0.8158475012500001  0.3750000000000000
  0.5745062530000000  0.8158475012500001  0.8750000000000000
  0.3245062530000000  0.5658475012499999  0.1250000000000000
  0.5470544995000001  0.8801189960000000  0.1250000000000000
  0.8750000000000000  0.1739369930000000  0.3750000000000000
  0.9529455005000000  0.1301189960000000  0.3750000000000000
  0.9254937470000000  0.0658475012500000  0.3750000000000000
  0.8245062529999999  0.0658475012500000  0.3750000000000000
  0.2970544995000000  0.3801189959999999  0.3750000000000000
  0.4254937470000000  0.3158475012500000  0.3750000000000000
  0.4529455005000000  0.3801189959999999  0.3750000000000000
  0.3749999999999999  0.4239369930000000  0.3750000000000000
  0.2029455005000000  0.1301189960000000  0.6250000000000000
  0.7970544995000001  0.1301189960000000  0.3750000000000000
  0.0745062530000000  0.0658475012500000  0.6250000000000000
  0.8750000000000000  0.1739369930000000  0.6250000000000000
  0.2970544995000000  0.3801189959999999  0.1250000000000000
  0.3245062530000000  0.3158475012500000  0.1250000000000000
  0.4254937470000000  0.3158475012500000  0.1250000000000000
  0.4529455005000000  0.3801189959999999  0.1250000000000000
  0.3749999999999999  0.4239369930000000  0.1250000000000000
  0.9529455005000000  0.1301189960000000  0.6250000000000000
  0.1754937470000000  0.0658475012500000  0.6250000000000000
  0.1250000000000000  0.1739369930000000  0.6250000000000000
  0.3749999999999999  0.4239369930000000  0.6250000000000000
  0.4529455005000000  0.3801189959999999  0.6250000000000000
  0.4254937470000001  0.5658475012499999  0.1250000000000000
  0.4529455005000000  0.6301189960000000  0.1250000000000000
  0.3750000000000001  0.6739369930000000  0.1250000000000000
  0.5470544995000001  0.8801189960000000  0.8750000000000000
  0.9254937469999999  0.8158475012500001  0.6250000000000000
  0.8750000000000000  0.1739369930000000  0.1250000000000000
  0.2970544995000000  0.3801189959999999  0.8750000000000000
  0.3245062530000000  0.3158475012500000  0.8750000000000000
  0.4254937470000000  0.3158475012500000  0.8750000000000000
  0.4529455005000000  0.3801189959999999  0.8750000000000000
  0.3749999999999999  0.4239369930000000  0.8750000000000000
  0.9529455005000000  0.1301189960000000  0.1250000000000000
  0.9254937470000000  0.0658475012500000  0.1250000000000000
  0.9529455004999999  0.8801189960000000  0.6250000000000000
  0.8245062529999999  0.0658475012500000  0.1250000000000000
  0.7970544995000001  0.1301189960000000  0.1250000000000000
  0.2970544995000000  0.3801189959999999  0.6250000000000000
  0.3245062530000000  0.3158475012500000  0.6250000000000000
  0.4254937470000000  0.3158475012500000  0.6250000000000000
  0.2970544995000000  0.6301189960000000  0.1250000000000000
  0.5745062530000000  0.8158475012500001  0.1250000000000000
  0.7029455004999999  0.8801189960000000  0.1250000000000000
  0.6754937470000000  0.8158475012500001  0.1250000000000000
  0.5470544995000001  0.1301189960000000  0.8750000000000000
  0.5745062530000000  0.0658475012500000  0.8750000000000000
  0.6754937470000001  0.0658475012500000  0.8750000000000000
  0.7029455005000002  0.1301189960000000  0.8750000000000000
  0.6250000000000000  0.1739369930000000  0.8750000000000000
  0.7029455004999999  0.6301189960000000  0.1250000000000000
  0.6754937470000000  0.5658475012499999  0.1250000000000000
  0.0745062530000000  0.0658475012500000  0.1250000000000000
  0.6250000000000000  0.6739369930000000  0.1250000000000000
  0.5745062530000000  0.5658475012499999  0.1250000000000000
  0.5470544995000001  0.1301189960000000  0.6250000000000000
  0.5745062530000000  0.0658475012500000  0.6250000000000000
  0.6754937470000001  0.0658475012500000  0.6250000000000000
  0.7029455005000002  0.1301189960000000  0.6250000000000000
  0.6250000000000000  0.1739369930000000  0.6250000000000000
  0.0470544995000000  0.1301189960000000  0.1250000000000000
  0.8245062529999998  0.8158475012500001  0.8750000000000000
  0.6250000000000000  0.6739369930000000  0.3750000000000000
  0.5470544995000001  0.6301189960000000  0.1250000000000000
  0.1754937470000000  0.0658475012500000  0.1250000000000000
  0.2029455005000000  0.1301189960000000  0.1250000000000000
  0.5470544995000001  0.3801189959999999  0.8750000000000000
  0.6754937470000001  0.3158475012500000  0.6250000000000000
  0.5745062530000000  0.3158475012500000  0.6250000000000000
  0.5470544995000001  0.3801189959999999  0.6250000000000000
  0.5470544995000001  0.3801189959999999  0.3750000000000000
  0.5745062530000000  0.3158475012500000  0.3750000000000000
  0.6754937470000001  0.3158475012500000  0.3750000000000000
  0.7029455004999999  0.3801189959999999  0.3750000000000000
  0.6250000000000000  0.4239369930000000  0.3750000000000000
  0.7970544994999998  0.8801189960000000  0.8750000000000000
  0.1250000000000000  0.1739369930000000  0.1250000000000000
  0.6250000000000000  0.4239369930000000  0.8750000000000000
  0.7029455004999999  0.3801189959999999  0.8750000000000000
  0.6754937470000001  0.3158475012500000  0.8750000000000000
  0.5745062530000000  0.3158475012500000  0.8750000000000000
  0.5470544995000001  0.3801189959999999  0.1250000000000000
  0.5745062530000000  0.3158475012500000  0.1250000000000000
  0.6754937470000001  0.3158475012500000  0.1250000000000000
  0.7029455004999999  0.3801189959999999  0.1250000000000000
  0.6250000000000000  0.4239369930000000  0.1250000000000000
  0.7029455004999999  0.6301189960000000  0.3750000000000000
  0.2029455005000000  0.1301189960000000  0.3750000000000000
  0.6754937470000000  0.5658475012499999  0.3750000000000000
  0.5470544995000001  0.1301189960000000  0.3750000000000000
  0.6250000000000000  0.6739369930000000  0.8750000000000000
  0.7029455004999999  0.6301189960000000  0.8750000000000000
  0.6754937470000000  0.5658475012499999  0.8750000000000000
  0.5745062530000000  0.5658475012499999  0.8750000000000000
  0.2970544995000000  0.8801189960000000  0.6250000000000000
  0.3245062530000000  0.8158475012500001  0.6250000000000000
  0.4254937470000001  0.8158475012500001  0.6250000000000000
  0.4529455005000000  0.8801189960000000  0.6250000000000000
  0.3750000000000001  0.9239369930000000  0.8750000000000000
  0.3750000000000001  0.9239369930000000  0.6250000000000000
  0.1250000000000000  0.1739369930000000  0.3750000000000000
  0.6250000000000000  0.9239369930000000  0.1250000000000000
  0.2970544995000000  0.8801189960000000  0.3750000000000000
  0.3245062530000000  0.8158475012500001  0.3750000000000000
  0.4254937470000001  0.8158475012500001  0.3750000000000000
  0.4529455005000000  0.8801189960000000  0.3750000000000000
  0.3750000000000001  0.9239369930000000  0.3750000000000000
  0.9254937470000000  0.0658475012500000  0.6250000000000000
  0.5470544995000001  0.6301189960000000  0.8750000000000000
  0.4529455005000000  0.8801189960000000  0.8750000000000000
  0.4254937470000001  0.8158475012500001  0.8750000000000000
  0.3245062530000000  0.8158475012500001  0.8750000000000000
  0.5745062530000000  0.0658475012500000  0.3750000000000000
  0.6754937470000001  0.0658475012500000  0.3750000000000000
  0.7029455005000002  0.1301189960000000  0.3750000000000000
  0.6250000000000000  0.1739369930000000  0.3750000000000000
  0.5470544995000001  0.6301189960000000  0.3750000000000000
  0.9254937469999999  0.8158475012500001  0.8750000000000000
  0.9529455004999999  0.8801189960000000  0.8750000000000000
  0.6250000000000000  0.6739369930000000  0.6250000000000000
  0.5470544995000001  0.1301189960000000  0.1250000000000000
  0.5745062530000000  0.0658475012500000  0.1250000000000000
  0.6754937470000001  0.0658475012500000  0.1250000000000000
  0.7029455005000002  0.1301189960000000  0.1250000000000000
  0.6250000000000000  0.1739369930000000  0.1250000000000000
  0.7029455004999999  0.6301189960000000  0.6250000000000000
  0.6754937470000000  0.5658475012499999  0.6250000000000000
  0.8750000000000000  0.9239369930000000  0.8750000000000000
  0.5745062530000000  0.5658475012499999  0.6250000000000000
  0.5470544995000001  0.6301189960000000  0.6250000000000000
  0.2970544995000000  0.8801189960000000  0.8750000000000000
  0.5745062530000000  0.5658475012499999  0.3750000000000000
  0.0470544995000000  0.1301189960000000  0.6250000000000000
  0.6250000000000000  0.4239369930000000  0.6250000000000000
  0.7970544995000001  0.1301189960000000  0.6250000000000000
  0.1250000000000000  0.6739369930000000  0.8750000000000000
  0.9529455004999999  0.6301189960000000  0.1250000000000000
  0.9254937469999999  0.5658475012499999  0.1250000000000000
  0.9254937469999999  0.8158475012500001  0.3750000000000000
  0.8245062529999998  0.5658475012499999  0.1250000000000000
  0.7970544994999998  0.6301189960000000  0.1250000000000000
  0.0470544995000000  0.6301189960000000  0.6250000000000000
  0.0745062530000000  0.5658475012499999  0.6250000000000000
  0.2029455005000000  0.6301189960000000  0.8750000000000000
  0.1754937470000000  0.5658475012499999  0.6250000000000000
  0.1250000000000000  0.6739369930000000  0.6250000000000000
  0.9529455004999999  0.8801189960000000  0.3750000000000000
  0.8750000000000000  0.9239369930000000  0.3750000000000000
  0.8750000000000000  0.6739369930000000  0.3750000000000000
  0.9529455004999999  0.6301189960000000  0.3750000000000000
  0.9254937469999999  0.5658475012499999  0.3750000000000000
  0.8245062529999998  0.5658475012499999  0.3750000000000000
  0.0470544995000000  0.6301189960000000  0.3750000000000000
  0.2029455005000000  0.6301189960000000  0.6250000000000000
  0.0745062530000000  0.5658475012499999  0.3750000000000000
  0.1754937470000000  0.5658475012499999  0.8750000000000000
  0.0470544995000000  0.6301189960000000  0.8750000000000000
  0.1754937470000000  0.8158475012500001  0.3750000000000000
  0.2029455005000000  0.8801189960000000  0.3750000000000000
  0.1250000000000000  0.9239369930000000  0.3750000000000000
  0.1754937470000000  0.0658475012500000  0.8750000000000000
  0.0745062530000000  0.0658475012500000  0.8750000000000000
  0.8750000000000000  0.4239369930000000  0.8750000000000000
  0.9529455004999999  0.3801189959999999  0.8750000000000000
  0.9254937470000000  0.3158475012500000  0.8750000000000000
  0.0745062530000000  0.5658475012499999  0.8750000000000000
  0.8245062529999999  0.3158475012500000  0.8750000000000000
  0.0745062530000000  0.8158475012500001  0.1250000000000000
  0.1754937470000000  0.8158475012500001  0.1250000000000000
  0.8245062529999999  0.0658475012500000  0.6250000000000000
  0.1250000000000000  0.9239369930000000  0.1250000000000000
  0.7970544994999998  0.3801189959999999  0.8750000000000000
  0.0470544995000000  0.1301189960000000  0.8750000000000000
  0.8245062529999998  0.8158475012500001  0.3750000000000000
  0.8750000000000000  0.6739369930000000  0.1250000000000000
  0.0470544995000000  0.8801189960000000  0.1250000000000000
  0.1754937470000000  0.5658475012499999  0.3750000000000000
  0.2029455005000000  0.6301189960000000  0.3750000000000000
  0.1250000000000000  0.6739369930000000  0.3750000000000000
  0.0745062530000000  0.3158475012500000  0.6250000000000000
  0.1754937470000000  0.3158475012500000  0.6250000000000000
  0.2029455005000000  0.3801189959999999  0.6250000000000000
  0.1250000000000000  0.4239369930000000  0.6250000000000000
  0.7970544994999998  0.6301189960000000  0.8750000000000000
  0.1754937470000000  0.3158475012500000  0.1250000000000000
  0.0745062530000000  0.3158475012500000  0.1250000000000000
  0.8750000000000000  0.9239369930000000  0.1250000000000000
  0.0470544995000000  0.3801189959999999  0.6250000000000000
  0.0470544995000000  0.3801189959999999  0.3750000000000000
  0.1754937470000000  0.3158475012500000  0.3750000000000000
  0.2029455005000000  0.3801189959999999  0.3750000000000000
  0.1250000000000000  0.4239369930000000  0.3750000000000000
  0.9529455004999999  0.8801189960000000  0.1250000000000000
  0.9254937469999999  0.8158475012500001  0.1250000000000000
  0.0470544995000000  0.3801189959999999  0.1250000000000000
  0.8245062529999998  0.8158475012500001  0.1250000000000000
  0.7970544994999998  0.8801189960000000  0.1250000000000000
  0.0745062530000000  0.3158475012500000  0.3750000000000000
  0.8245062529999998  0.5658475012499999  0.8750000000000000
  0.9254937469999999  0.5658475012499999  0.8750000000000000
  0.9529455004999999  0.6301189960000000  0.8750000000000000
  0.7970544994999998  0.6301189960000000  0.3750000000000000
  0.8750000000000000  0.6739369930000000  0.6250000000000000
  0.0470544995000000  0.6301189960000000  0.1250000000000000
  0.0745062530000000  0.5658475012499999  0.1250000000000000
  0.1754937470000000  0.5658475012499999  0.1250000000000000
  0.2029455005000000  0.6301189960000000  0.1250000000000000
  0.1250000000000000  0.6739369930000000  0.1250000000000000
  0.9529455004999999  0.6301189960000000  0.6250000000000000
  0.9254937469999999  0.5658475012499999  0.6250000000000000
  0.8245062529999998  0.5658475012499999  0.6250000000000000
  0.7970544994999998  0.6301189960000000  0.6250000000000000
  0.0470544995000000  0.3801189959999999  0.8750000000000000
  0.0745062530000000  0.3158475012500000  0.8750000000000000
  0.1754937470000000  0.3158475012500000  0.8750000000000000
  0.2029455005000000  0.3801189959999999  0.8750000000000000
  0.1250000000000000  0.4239369930000000  0.8750000000000000
  0.1250000000000000  0.4239369930000000  0.1250000000000000
  0.2029455005000000  0.3801189959999999  0.1250000000000000
  0.8750000000000000  0.6739369930000000  0.8750000000000000
  0.0745062530000000  0.8158475012500001  0.3750000000000000
  0.0470544995000000  0.8801189960000000  0.3750000000000000
  0.2029455005000000  0.8801189960000000  0.1250000000000000
  0.0470544995000000  0.8801189960000000  0.8750000000000000
  0.1250000000000000  0.9239369930000000  0.8750000000000000
  0.2029455005000000  0.8801189960000000  0.8750000000000000
  0.9254937470000000  0.0658475012500000  0.8750000000000000
  0.1754937470000000  0.8158475012500001  0.8750000000000000
  0.0745062530000000  0.8158475012500001  0.8750000000000000
  0.8245062529999999  0.3158475012500000  0.3750000000000000
  0.8245062529999999  0.0658475012500000  0.8750000000000000
  0.9254937470000000  0.3158475012500000  0.3750000000000000
  0.9529455004999999  0.3801189959999999  0.3750000000000000
  0.8750000000000000  0.4239369930000000  0.3750000000000000
  0.2970544995000000  0.1301189960000000  0.6250000000000000
  0.3245062530000000  0.0658475012500000  0.6250000000000000
  0.4254937470000000  0.0658475012500000  0.6250000000000000
  0.3749999999999999  0.1739369930000000  0.1250000000000000
  0.4529455005000000  0.1301189960000000  0.1250000000000000
  0.4254937470000000  0.0658475012500000  0.1250000000000000
  0.4529455005000000  0.1301189960000000  0.6250000000000000
  0.8750000000000000  0.4239369930000000  0.1250000000000000
  0.3245062530000000  0.0658475012500000  0.3750000000000000
  0.4254937470000000  0.0658475012500000  0.3750000000000000
  0.4529455005000000  0.1301189960000000  0.3750000000000000
  0.3749999999999999  0.1739369930000000  0.3750000000000000
  0.9529455004999999  0.3801189959999999  0.1250000000000000
  0.7970544994999998  0.3801189959999999  0.3750000000000000
  0.9254937470000000  0.3158475012500000  0.1250000000000000
  0.7970544994999998  0.3801189959999999  0.6250000000000000
  0.7970544994999998  0.3801189959999999  0.1250000000000000
  0.2970544995000000  0.1301189960000000  0.1250000000000000
  0.7970544995000001  0.1301189960000000  0.8750000000000000
  0.3749999999999999  0.1739369930000000  0.6250000000000000
  0.3245062530000000  0.0658475012500000  0.1250000000000000
  0.8245062529999999  0.3158475012500000  0.1250000000000000
  0.9529455005000000  0.1301189960000000  0.8750000000000000
  0.2970544995000000  0.1301189960000000  0.3750000000000000
  0.8750000000000000  0.1739369930000000  0.8750000000000000
  0.8245062529999999  0.3158475012500000  0.6250000000000000
  0.2029455005000000  0.1301189960000000  0.8750000000000000
  0.9254937470000000  0.3158475012500000  0.6250000000000000
  0.2970544995000000  0.1301189960000000  0.8750000000000000
  0.3245062530000000  0.0658475012500000  0.8750000000000000
  0.9529455004999999  0.3801189959999999  0.6250000000000000
  0.1250000000000000  0.9239369930000000  0.6250000000000000
  0.2029455005000000  0.8801189960000000  0.6250000000000000
  0.7970544994999998  0.8801189960000000  0.3750000000000000
  0.4254937470000000  0.0658475012500000  0.8750000000000000
  0.4529455005000000  0.1301189960000000  0.8750000000000000
  0.0745062530000000  0.8158475012500001  0.6250000000000000
  0.0470544995000000  0.8801189960000000  0.6250000000000000
  0.8750000000000000  0.4239369930000000  0.6250000000000000
  0.1250000000000000  0.1739369930000000  0.8750000000000000
  0.1754937470000000  0.8158475012500001  0.6250000000000000
  0.7029455004999999  0.3801189959999999  0.6250000000000000
  0.8750000000000000  0.9239369930000000  0.6250000000000000
  0.3749999999999999  0.1739369930000000  0.8750000000000000
  0.5000000000000000  0.4799257517500000  0.8750000000000000
  0.7499999999999999  0.6157369985000000  0.5000000000000000
  0.8750000000000000  0.2461042552500000  0.5000000000000000
  0.8750000000000000  0.7461042552500000  0.7500000000000000
  0.8750000000000000  0.2461042552500000  0.2500000000000000
  0.8750000000000000  0.9961042552499999  0.7500000000000000
  0.7499999999999999  0.6157369985000000  0.7500000000000000
  0.7499999999999999  0.1157369985000000  0.5000000000000000
  0.7499999999999999  0.7299257517500000  0.8750000000000000
  0.5000000000000000  0.6157369985000000  0.0000000000000000
  0.6250000000000000  0.7461042552500000  0.0000000000000000
  0.7499999999999999  0.9799257517500000  0.3750000000000000
  0.7499999999999999  0.2299257517500000  0.8750000000000000
  0.6250000000000000  0.4961042552500000  0.5000000000000000
  0.7499999999999999  0.2299257517500000  0.1250000000000000
  0.5000000000000000  0.3657369985000000  0.5000000000000000
  0.7499999999999999  0.7299257517500000  0.6250000000000000
  0.8750000000000000  0.2461042552500000  0.7500000000000000
  0.8750000000000000  0.7461042552500000  0.5000000000000000
  0.7499999999999999  0.1157369985000000  0.2500000000000000
  0.7499999999999999  0.2299257517500000  0.3750000000000000
  0.6250000000000000  0.4961042552500000  0.7500000000000000
  0.7499999999999999  0.8657369985000000  0.0000000000000000
  0.5000000000000000  0.4799257517500000  0.6250000000000000
  0.7499999999999999  0.2299257517500000  0.6250000000000000
  0.5000000000000000  0.3657369985000000  0.7500000000000000
  0.7499999999999999  0.1157369985000000  0.7500000000000000
  0.8750000000000000  0.4961042552500000  0.5000000000000000
  0.5000000000000000  0.7299257517500000  0.3750000000000000
  0.5000000000000000  0.7299257517500000  0.1250000000000000
  0.7499999999999999  0.9799257517500000  0.6250000000000000
  0.5000000000000000  0.6157369985000000  0.7500000000000000
  0.5000000000000000  0.7299257517500000  0.8750000000000000
  0.5000000000000000  0.8657369985000000  0.5000000000000000
  0.6250000000000000  0.9961042552499999  0.5000000000000000
  0.7499999999999999  0.4799257517500000  0.8750000000000000
  0.7499999999999999  0.3657369985000000  0.7500000000000000
  0.7499999999999999  0.3657369985000000  0.2500000000000000
  0.8750000000000000  0.4961042552500000  0.7500000000000000
  0.6250000000000000  0.7461042552500000  0.7500000000000000
  0.7499999999999999  0.4799257517500000  0.3750000000000000
  0.6250000000000000  0.9961042552499999  0.0000000000000000
  0.5000000000000000  0.8657369985000000  0.0000000000000000
  0.7499999999999999  0.8657369985000000  0.5000000000000000
  0.5000000000000000  0.9799257517500000  0.1250000000000000
  0.5000000000000000  0.9799257517500000  0.3750000000000000
  0.7499999999999999  0.4799257517500000  0.6250000000000000
  0.5000000000000000  0.8657369985000000  0.2500000000000000
  0.6250000000000000  0.9961042552499999  0.2500000000000000
  0.7499999999999999  0.3657369985000000  0.5000000000000000
  0.8750000000000000  0.9961042552499999  0.5000000000000000
  0.7499999999999999  0.1157369985000000  0.0000000000000000
  0.8750000000000000  0.4961042552500000  0.2500000000000000
  0.8750000000000000  0.7461042552500000  0.0000000000000000
  0.7499999999999999  0.9799257517500000  0.1250000000000000
  0.8750000000000000  0.2461042552500000  0.0000000000000000
  0.7499999999999999  0.8657369985000000  0.2500000000000000
  0.7499999999999999  0.7299257517500000  0.3750000000000000
  0.7499999999999999  0.6157369985000000  0.2500000000000000
  0.8750000000000000  0.7461042552500000  0.2500000000000000
  0.6250000000000000  0.7461042552500000  0.2500000000000000
  0.5000000000000000  0.6157369985000000  0.2500000000000000
  0.8750000000000000  0.4961042552500000  0.0000000000000000
  0.5000000000000000  0.9799257517500000  0.6250000000000000
  0.7499999999999999  0.3657369985000000  0.0000000000000000
  0.5000000000000000  0.8657369985000000  0.7500000000000000
  0.6250000000000000  0.9961042552499999  0.7500000000000000
  0.7499999999999999  0.7299257517500000  0.1250000000000000
  0.6250000000000000  0.7461042552500000  0.5000000000000000
  0.5000000000000000  0.6157369985000000  0.5000000000000000
  0.7499999999999999  0.4799257517500000  0.1250000000000000
  0.8750000000000000  0.9961042552499999  0.2500000000000000
  0.5000000000000000  0.7299257517500000  0.6250000000000000
  0.7499999999999999  0.6157369985000000  0.0000000000000000
  0.5000000000000000  0.9799257517500000  0.8750000000000000
  0.8750000000000000  0.9961042552499999  0.0000000000000000
  0.2500000000000000  0.9799257517500000  0.8750000000000000
  0.7499999999999999  0.9799257517500000  0.8750000000000000
  0.2500000000000000  0.3657369985000000  0.7500000000000000
  0.2500000000000000  0.4799257517500000  0.8750000000000000
  0.0000000000000000  0.7299257517500000  0.6250000000000000
  0.0000000000000000  0.6157369985000000  0.5000000000000000
  0.1250000000000000  0.7461042552500000  0.5000000000000000
  0.3750000000000001  0.7461042552500000  0.0000000000000000
  0.2500000000000000  0.6157369985000000  0.0000000000000000
  0.2500000000000000  0.7299257517500000  0.1250000000000000
  0.0000000000000000  0.7299257517500000  0.3750000000000000
  0.3750000000000001  0.7461042552500000  0.2500000000000000
  0.0000000000000000  0.6157369985000000  0.2500000000000000
  0.2500000000000000  0.6157369985000000  0.2500000000000000
  0.2500000000000000  0.7299257517500000  0.3750000000000000
  0.1250000000000000  0.7461042552500000  0.2500000000000000
  0.3749999999999999  0.4961042552500000  0.7500000000000000
  0.0000000000000000  0.7299257517500000  0.1250000000000000
  0.3750000000000001  0.7461042552500000  0.5000000000000000
  0.2500000000000000  0.6157369985000000  0.5000000000000000
  0.2500000000000000  0.7299257517500000  0.6250000000000000
  0.1250000000000000  0.7461042552500000  0.0000000000000000
  0.2500000000000000  0.2299257517500000  0.1250000000000000
  0.3750000000000001  0.7461042552500000  0.7500000000000000
  0.2500000000000000  0.6157369985000000  0.7500000000000000
  0.2500000000000000  0.7299257517500000  0.8750000000000000
  0.0000000000000000  0.4799257517500000  0.8750000000000000