POSCAR_8x8x8_MAPI
 1.0000000000000000
    50.3209609983999968    0.0000000000000000    0.0000000000000000
     0.0006215520000000   50.1911201440000028    0.0000000000000000
    -0.3173405680000000   -0.0012303448000000   50.3753203328000012
   C   H   I   N  Pb
 512 3072 1536 512 512
Direct
  0.1128474995000000  0.1249953732500000  0.1245418787500000
  0.8628474995000001  0.2499953732500000  0.8745418787499999
  0.6128474995000001  0.2499953732500000  0.2495418787500000
  0.2378474995000000  0.2499953732500000  0.6245418787500000
  0.4878474995000001  0.1249953732500000  0.9995418787500000
  0.9878474995000001  0.7499953732499999  0.7495418787500000
  0.3628474995000000  0.2499953732500000  0.8745418787499999
  0.7378474994999999  0.7499953732500000  0.1245418787500000
  0.1128474995000000  0.6249953732500000  0.8745418787499999
  0.8628474995000001  0.9999953732500000  0.2495418787500000
  0.9878474995000002  0.4999953732500000  0.3745418787499999
  0.9878474995000001  0.1249953732500000  0.9995418787500000
  0.8628474995000001  0.4999953732500000  0.6245418787500000
  0.4878474995000001  0.2499953732500000  0.1245418787500000
  0.1128474995000000  0.6249953732500000  0.9995418787500000
  0.6128474995000001  0.7499953732499999  0.9995418787500000
  0.6128474994999999  0.8749953732500001  0.1245418787500000
  0.1128474995000000  0.6249953732500000  0.7495418787500000
  0.4878474995000001  0.6249953732500000  0.6245418787500000
  0.1128474995000000  0.6249953732500000  0.4995418787499999
  0.6128474994999999  0.8749953732499999  0.3745418787499999
  0.7378474994999999  0.6249953732500000  0.9995418787500000
  0.3628474994999999  0.3749953732500000  0.1245418787500000
  0.8628474995000003  0.9999953732500000  0.1245418787500000
  0.7378474994999999  0.9999953732499999  0.6245418787500000
  0.9878474995000001  0.7499953732499999  0.8745418787499999
  0.6128474995000001  0.2499953732500000  0.1245418787500000
  0.2378474995000000  0.2499953732500000  0.7495418787500000
  0.1128474995000000  0.6249953732500000  0.6245418787500000
  0.6128474995000001  0.8749953732500001  0.2495418787500000
  0.8628474995000003  0.4999953732500000  0.7495418787500000
  0.4878474995000001  0.1249953732500000  0.8745418787499999
  0.3628474995000000  0.2499953732500000  0.9995418787500000
  0.2378474995000000  0.8749953732500001  0.2495418787500000
  0.6128474995000001  0.7499953732499999  0.8745418787499999
  0.7378474994999999  0.7499953732499999  0.2495418787500000
  0.3628474995000000  0.2499953732500000  0.7495418787500000
  0.2378474995000000  0.8749953732499999  0.3745418787499999
  0.3628474995000000  0.2499953732500000  0.4995418787499999
  0.9878474995000002  0.4999953732500000  0.4995418787499999
  0.1128474995000000  0.7499953732499999  0.3745418787499999
  0.6128474995000001  0.7499953732500000  0.4995418787499999
  0.4878474995000000  0.6249953732500000  0.3745418787499999
  0.8628474994999999  0.2499953732500000  0.9995418787500000
  0.7378474994999999  0.9999953732499999  0.3745418787499999
  0.6128474995000001  0.2499953732500000  0.6245418787500000
  0.2378474995000000  0.2499953732500000  0.2495418787500000
  0.4878474995000001  0.2499953732500000  0.4995418787499999
  0.1128474995000000  0.7499953732500000  0.4995418787499999
  0.6128474995000001  0.7499953732499999  0.3745418787499999
  0.7378474994999999  0.7499953732500000  0.4995418787499999
  0.3628474995000000  0.2499953732500000  0.3745418787499999
  0.8628474995000003  0.9999953732500000  0.4995418787499999
  0.9878474995000001  0.7499953732500000  0.4995418787499999
  0.4878474995000001  0.1249953732500000  0.7495418787500000
  0.4878474995000001  0.2499953732500000  0.3745418787499999
  0.2378474995000000  0.8749953732500001  0.4995418787499999
  0.7378474995000002  0.9999953732500000  0.4995418787499999
  0.6128474995000001  0.2499953732500000  0.3745418787499999
  0.2378474995000000  0.2499953732500000  0.4995418787499999
  0.4878474995000000  0.6249953732500000  0.4995418787499999
  0.9878474994999999  0.7499953732499999  0.6245418787500000
  0.1128474995000000  0.7499953732500000  0.1245418787500000
  0.6128474995000001  0.7499953732499999  0.7495418787500000
  0.4878474995000001  0.2499953732500000  0.2495418787500000
  0.3628474995000001  0.2499953732500000  0.6245418787500000
  0.8628474995000003  0.9999953732499999  0.3745418787499999
  0.1128474995000000  0.7499953732499999  0.2495418787500000
  0.6128474995000001  0.7499953732499999  0.6245418787500000
  0.7378474994999999  0.7499953732499999  0.3745418787499999
  0.6128474995000001  0.2499953732500000  0.4995418787499999
  0.2378474995000000  0.2499953732500000  0.3745418787499999
  0.8628474995000003  0.4999953732500000  0.4995418787499999
  0.4878474995000001  0.6249953732500000  0.7495418787500000
  0.9878474995000001  0.4999953732500000  0.2495418787500000
  0.2378474995000000  0.8749953732500001  0.1245418787500000
  0.8628474994999999  0.2499953732500000  0.6245418787500000
  0.1128474995000000  0.4999953732500000  0.6245418787500000
  0.6128474995000001  0.9999953732500000  0.2495418787500000
  0.8628474995000003  0.6249953732500000  0.1245418787500000
  0.4878474995000001  0.1249953732500000  0.1245418787500000
  0.3628474995000000  0.3749953732500000  0.7495418787500000
  0.7378474995000002  0.9999953732500000  0.8745418787499999
  0.6128474995000001  0.1249953732500000  0.6245418787500000
  0.2378474995000000  0.3749953732500000  0.2495418787500000
  0.1128474995000000  0.4999953732500000  0.7495418787500000
  0.6128474995000001  0.9999953732500000  0.1245418787500000
  0.7378474994999999  0.6249953732500000  0.6245418787500000
  0.9878474994999999  0.2499953732500000  0.2495418787500000
  0.2378474995000000  0.7499953732499999  0.8745418787499999
  0.4878474995000001  0.1249953732500000  0.2495418787500000
  0.9878474995000002  0.8749953732499999  0.3745418787499999
  0.9878474995000001  0.8749953732500001  0.2495418787500000
  0.4878474995000001  0.7499953732500000  0.1245418787500000
  0.8628474995000003  0.8749953732499999  0.7495418787500000
  0.4878474995000001  0.7499953732499999  0.2495418787500000
  0.8628474995000001  0.6249953732500000  0.2495418787500000
  0.3628474995000000  0.9999953732500000  0.8745418787499999
  0.9878474995000002  0.8749953732500001  0.4995418787499999
  0.3628474994999999  0.3749953732500000  0.9995418787500000
  0.1128474995000000  0.4999953732500000  0.3745418787499999
  0.6128474995000001  0.9999953732500000  0.4995418787499999
  0.6128474995000001  0.1249953732500000  0.4995418787499999
  0.2378474995000000  0.3749953732500000  0.3745418787499999
  0.3628474995000000  0.9999953732499999  0.9995418787500000
  0.1128474995000000  0.4999953732500000  0.4995418787499999
  0.6128474995000001  0.9999953732499999  0.3745418787499999
  0.7378474995000002  0.6249953732500000  0.4995418787499999
  0.3628474994999999  0.3749953732500000  0.8745418787499999
  0.2378474995000000  0.7499953732499999  0.7495418787500000
  0.9878474995000001  0.3749953732500000  0.9995418787500000
  0.9878474995000002  0.1249953732500000  0.8745418787499999
  0.3628474995000000  0.3749953732500000  0.6245418787500000
  0.1128474995000000  0.4999953732500000  0.8745418787499999
  0.4878474995000000  0.6249953732500000  0.8745418787499999
  0.8628474995000001  0.2499953732500000  0.7495418787500000
  0.8628474995000001  0.8749953732499999  0.9995418787500000
  0.1128474995000000  0.6249953732500000  0.2495418787500000
  0.6128474995000001  0.8749953732499999  0.6245418787500000
  0.7378474995000002  0.6249953732500000  0.8745418787499999
  0.8628474995000003  0.4999953732500000  0.8745418787499999
  0.4878474995000001  0.1249953732500000  0.6245418787500000
  0.9878474994999999  0.7499953732499999  0.9995418787500000
  0.3628474995000000  0.3749953732500000  0.2495418787500000
  0.9878474995000001  0.2499953732500000  0.1245418787500000
  0.1128474995000000  0.6249953732500000  0.3745418787499999
  0.6128474994999999  0.8749953732500001  0.4995418787499999
  0.6128474995000001  0.1249953732500000  0.9995418787500000
  0.2378474995000000  0.2499953732500000  0.8745418787499999
  0.3628474995000000  0.3749953732500000  0.3745418787499999
  0.4878474995000000  0.6249953732500000  0.9995418787500000
  0.4878474995000001  0.1249953732500000  0.4995418787499999
  0.6128474995000001  0.1249953732500000  0.8745418787499999
  0.6128474994999999  0.8749953732499999  0.9995418787500000
  0.8628474995000003  0.8749953732500001  0.8745418787499999
  0.6128474995000001  0.1249953732500000  0.7495418787500000
  0.2378474995000000  0.3749953732500000  0.1245418787500000
  0.8628474995000001  0.4999953732500000  0.9995418787500000
  0.4878474995000001  0.1249953732500000  0.3745418787499999
  0.1128474995000000  0.4999953732500000  0.9995418787500000
  0.7378474995000002  0.6249953732500000  0.7495418787500000
  0.3628474994999999  0.3749953732500000  0.4995418787499999
  0.9878474995000002  0.4999953732500000  0.1245418787500000
  0.9878474995000002  0.8749953732500001  0.1245418787500000
  0.2378474995000000  0.7499953732499999  0.9995418787500000
  0.1128474995000000  0.6249953732500000  0.1245418787500000
  0.6128474995000001  0.8749953732499999  0.7495418787500000
  0.7378474995000002  0.9999953732499999  0.7495418787500000
  0.2378474995000000  0.2499953732500000  0.9995418787500000
  0.9878474995000001  0.7499953732499999  0.3745418787499999
  0.2378474995000000  0.8749953732499999  0.6245418787500000
  0.1128474995000000  0.7499953732499999  0.6245418787500000
  0.2378474995000000  0.9999953732500000  0.2495418787500000
  0.9878474995000001  0.4999953732500000  0.9995418787500000
  0.1128474995000000  0.9999953732500000  0.1245418787500000
  0.6128474995000001  0.4999953732500000  0.7495418787500000
  0.4878474995000001  0.4999953732500000  0.6245418787500000
  0.8628474995000003  0.3749953732500000  0.3745418787499999
  0.4878474995000001  0.3749953732500000  0.7495418787500000
  0.3628474995000000  0.1249953732500000  0.1245418787500000
  0.9878474995000002  0.1249953732500000  0.1245418787500000
  0.7378474994999999  0.8749953732500001  0.8745418787499999
  0.1128474995000000  0.9999953732500000  0.2495418787500000
  0.6128474995000001  0.4999953732500000  0.6245418787500000
  0.7378474994999999  0.8749953732499999  0.3745418787499999
  0.6128474995000001  0.3749953732500000  0.6245418787500000
  0.2378474995000000  0.1249953732500000  0.2495418787500000
  0.9878474995000001  0.6249953732500000  0.6245418787500000
  0.8628474995000003  0.3749953732500000  0.7495418787500000
  0.2378474995000000  0.1249953732500000  0.3745418787499999
  0.3628474995000001  0.1249953732500000  0.2495418787500000
  0.7378474994999999  0.8749953732499999  0.9995418787500000
  0.6128474994999999  0.3749953732500000  0.3745418787499999
  0.2378474995000000  0.1249953732500000  0.4995418787499999
  0.4878474995000000  0.3749953732500000  0.4995418787499999
  0.9878474995000002  0.6249953732500000  0.7495418787500000
  0.3628474995000001  0.1249953732500000  0.3745418787499999
  0.4878474995000001  0.4999953732500000  0.7495418787500000
  0.1128474995000000  0.8749953732500001  0.8745418787499999
  0.6128474995000001  0.4999953732500000  0.9995418787500000
  0.8628474995000001  0.9999953732499999  0.9995418787500000
  0.8628474995000003  0.3749953732500000  0.8745418787499999
  0.4878474995000001  0.3749953732500000  0.6245418787500000
  0.1128474995000000  0.8749953732499999  0.9995418787500000
  0.6128474995000001  0.4999953732500000  0.8745418787499999
  0.7378474994999999  0.8749953732500001  0.2495418787500000
  0.6128474994999999  0.3749953732500000  0.4995418787499999
  0.2378474995000000  0.9999953732500000  0.1245418787500000
  0.4878474995000000  0.3749953732500000  0.8745418787499999
  0.2378474995000000  0.9999953732499999  0.9995418787500000
  0.2378474995000000  0.9999953732499999  0.7495418787500000
  0.2378474995000000  0.9999953732500000  0.4995418787499999
  0.7378474994999999  0.8749953732499999  0.7495418787500000
  0.6128474994999999  0.3749953732500000  0.8745418787499999
  0.1128474995000000  0.9999953732499999  0.9995418787500000
  0.4878474995000001  0.4999953732500000  0.3745418787499999
  0.1128474995000000  0.9999953732499999  0.7495418787500000
  0.6128474995000001  0.4999953732500000  0.1245418787500000
  0.7378474994999999  0.8749953732499999  0.6245418787500000
  0.8628474995000003  0.3749953732500000  0.4995418787499999
  0.4878474995000001  0.4999953732500000  0.2495418787500000
  0.9878474995000001  0.6249953732500000  0.2495418787500000
  0.2378474995000000  0.9999953732499999  0.6245418787500000
  0.1128474995000000  0.9999953732500000  0.8745418787499999
  0.6128474994999999  0.3749953732500000  0.9995418787500000
  0.4878474995000001  0.4999953732500000  0.1245418787500000
  0.9878474995000002  0.6249953732500000  0.4995418787499999
  0.8628474995000001  0.3749953732500000  0.6245418787500000
  0.1128474995000000  0.9999953732499999  0.6245418787500000
  0.9878474995000002  0.1249953732500000  0.4995418787499999
  0.1128474995000000  0.9999953732499999  0.3745418787499999
  0.6128474995000001  0.4999953732500000  0.4995418787499999
  0.2378474995000000  0.9999953732499999  0.3745418787499999
  0.4878474995000001  0.4999953732500000  0.4995418787499999
  0.6128474995000001  0.3749953732500000  0.7495418787500000
  0.2378474995000000  0.1249953732500000  0.1245418787500000
  0.4878474995000000  0.3749953732500000  0.9995418787500000
  0.1128474995000000  0.9999953732500000  0.4995418787499999
  0.6128474995000001  0.4999953732500000  0.3745418787499999
  0.7378474994999999  0.8749953732500001  0.4995418787499999
  0.2378474995000000  0.9999953732500000  0.8745418787499999
  0.9878474995000001  0.1249953732500000  0.2495418787500000
  0.9878474995000002  0.6249953732500000  0.1245418787500000
  0.9878474995000002  0.6249953732500000  0.3745418787499999
  0.6128474995000001  0.4999953732500000  0.2495418787500000
  0.2378474995000000  0.3749953732500000  0.4995418787499999
  0.7378474994999999  0.8749953732500001  0.1245418787500000
  0.1128474995000000  0.8749953732499999  0.7495418787500000
  0.6128474995000001  0.2499953732500000  0.8745418787499999
  0.2378474995000000  0.1249953732500000  0.9995418787500000
  0.4878474995000000  0.6249953732500000  0.1245418787500000
  0.8628474995000003  0.3749953732500000  0.1245418787500000
  0.8628474995000001  0.4999953732500000  0.2495418787500000
  0.4878474995000001  0.2499953732500000  0.8745418787499999
  0.1128474995000000  0.7499953732499999  0.9995418787500000
  0.6128474994999999  0.6249953732500000  0.8745418787499999
  0.7378474994999999  0.7499953732499999  0.7495418787500000
  0.3628474995000000  0.1249953732500000  0.9995418787500000
  0.9878474995000001  0.7499953732500000  0.1245418787500000
  0.9878474995000002  0.1249953732500000  0.7495418787500000
  0.1128474995000000  0.8749953732500001  0.1245418787500000
  0.6128474995000001  0.6249953732500000  0.7495418787500000
  0.6128474995000001  0.2499953732500000  0.9995418787500000
  0.7378474994999999  0.9999953732500000  0.2495418787500000
  0.2378474995000000  0.1249953732500000  0.8745418787499999
  0.2378474995000000  0.8749953732499999  0.7495418787500000
  0.6128474994999999  0.6249953732500000  0.9995418787500000
  0.6128474995000001  0.7499953732499999  0.2495418787500000
  0.4878474995000001  0.6249953732500000  0.2495418787500000
  0.8628474995000003  0.4999953732500000  0.3745418787499999
  0.4878474995000001  0.2499953732500000  0.6245418787500000
  0.3628474995000000  0.2499953732500000  0.2495418787500000
  0.6128474995000001  0.2499953732500000  0.7495418787500000
  0.2378474995000000  0.2499953732500000  0.1245418787500000
  0.1128474995000000  0.7499953732499999  0.7495418787500000
  0.6128474995000001  0.7499953732500000  0.1245418787500000
  0.7378474994999999  0.7499953732499999  0.6245418787500000
  0.9878474995000001  0.4999953732500000  0.6245418787500000
  0.4878474995000001  0.2499953732500000  0.7495418787500000
  0.9878474994999999  0.7499953732499999  0.2495418787500000
  0.3628474995000000  0.2499953732500000  0.1245418787500000
  0.1128474995000000  0.7499953732499999  0.8745418787499999
  0.8628474995000001  0.9999953732499999  0.6245418787500000
  0.6128474994999999  0.6249953732500000  0.1245418787500000
  0.4878474995000001  0.2499953732500000  0.9995418787500000
  0.2378474995000000  0.8749953732500001  0.8745418787499999
  0.7378474994999999  0.7499953732499999  0.9995418787500000
  0.3628474995000001  0.1249953732500000  0.6245418787500000
  0.4878474995000001  0.4999953732500000  0.8745418787499999
  0.8628474995000001  0.3749953732500000  0.2495418787500000
  0.8628474995000003  0.9999953732500000  0.8745418787499999
  0.9878474995000002  0.6249953732500000  0.8745418787499999
  0.6128474995000001  0.3749953732500000  0.2495418787500000
  0.2378474995000000  0.1249953732500000  0.6245418787500000
  0.1128474995000000  0.8749953732499999  0.6245418787500000
  0.6128474995000001  0.6249953732500000  0.2495418787500000
  0.8628474995000001  0.3749953732500000  0.9995418787500000
  0.4878474995000000  0.3749953732500000  0.3745418787499999
  0.3628474995000000  0.1249953732500000  0.4995418787499999
  0.9878474995000002  0.4999953732500000  0.8745418787499999
  0.9878474995000001  0.1249953732500000  0.6245418787500000
  0.6128474994999999  0.6249953732500000  0.3745418787499999
  0.3628474995000000  0.1249953732500000  0.8745418787499999
  0.1128474995000000  0.8749953732500001  0.4995418787499999
  0.2378474995000000  0.8749953732499999  0.9995418787500000
  0.8628474995000003  0.9999953732499999  0.7495418787500000
  0.9878474995000002  0.4999953732500000  0.7495418787500000
  0.4878474995000001  0.4999953732500000  0.9995418787500000
  0.1128474995000000  0.8749953732500001  0.2495418787500000
  0.6128474995000001  0.6249953732500000  0.6245418787500000
  0.7378474994999999  0.7499953732499999  0.8745418787499999
  0.8628474995000003  0.4999953732500000  0.1245418787500000
  0.4878474995000000  0.3749953732500000  0.1245418787500000
  0.9878474995000001  0.6249953732500000  0.9995418787500000
  0.3628474995000001  0.1249953732500000  0.7495418787500000
  0.1128474995000000  0.8749953732499999  0.3745418787499999
  0.6128474994999999  0.6249953732500000  0.4995418787499999
  0.7378474995000002  0.9999953732500000  0.1245418787500000
  0.6128474994999999  0.3749953732500000  0.1245418787500000
  0.2378474995000000  0.1249953732500000  0.7495418787500000
  0.4878474995000001  0.3749953732500000  0.2495418787500000
  0.6128474995000001  0.1249953732500000  0.3745418787499999
  0.6128474994999999  0.8749953732500001  0.8745418787499999
  0.6128474995000001  0.9999953732499999  0.6245418787500000
  0.3628474995000000  0.8749953732500001  0.4995418787499999
  0.1128474995000000  0.2499953732500000  0.4995418787499999
  0.7378474994999999  0.2499953732500000  0.3745418787499999
  0.7378474995000002  0.4999953732500000  0.4995418787499999
  0.3628474995000000  0.6249953732500000  0.3745418787499999
  0.4878474995000001  0.7499953732499999  0.9995418787500000
  0.2378474995000000  0.4999953732500000  0.4995418787499999
  0.8628474994999999  0.7499953732499999  0.9995418787500000
  0.1128474995000000  0.2499953732500000  0.6245418787500000
  0.7378474994999999  0.2499953732500000  0.2495418787500000
  0.8628474995000003  0.6249953732500000  0.8745418787499999
  0.3628474995000001  0.8749953732499999  0.6245418787500000
  0.3628474995000000  0.6249953732500000  0.2495418787500000
  0.7378474994999999  0.6249953732500000  0.3745418787499999
  0.9878474995000002  0.9999953732499999  0.3745418787499999
  0.4878474995000001  0.9999953732500000  0.4995418787499999
  0.4878474995000001  0.9999953732499999  0.3745418787499999
  0.2378474995000000  0.6249953732500000  0.8745418787499999
  0.8628474995000001  0.7499953732499999  0.8745418787499999
  0.1128474995000000  0.2499953732500000  0.2495418787500000
  0.7378474994999999  0.2499953732500000  0.6245418787500000
  0.7378474994999999  0.4999953732500000  0.3745418787499999
  0.4878474995000001  0.9999953732500000  0.2495418787500000
  0.2378474995000000  0.4999953732500000  0.6245418787500000
  0.8628474995000003  0.1249953732500000  0.4995418787499999
  0.8628474995000001  0.6249953732500000  0.9995418787500000
  0.9878474995000002  0.9999953732500000  0.4995418787499999
  0.3628474994999999  0.6249953732500000  0.4995418787499999
  0.9878474995000002  0.3749953732500000  0.3745418787499999
  0.1128474995000000  0.2499953732500000  0.3745418787499999
  0.7378474994999999  0.2499953732500000  0.4995418787499999
  0.9878474995000001  0.2499953732500000  0.7495418787500000
  0.3628474995000000  0.8749953732499999  0.3745418787499999
  0.8628474995000001  0.2499953732500000  0.1245418787500000
  0.2378474995000000  0.4999953732500000  0.3745418787499999
  0.7378474994999999  0.2499953732500000  0.1245418787500000
  0.7378474995000002  0.4999953732500000  0.7495418787500000
  0.3628474995000000  0.4999953732500000  0.9995418787500000
  0.9878474994999999  0.2499953732500000  0.6245418787500000
  0.2378474995000000  0.7499953732500000  0.1245418787500000
  0.4878474995000001  0.7499953732499999  0.7495418787500000
  0.9878474995000002  0.9999953732500000  0.1245418787500000
  0.7378474995000002  0.1249953732500000  0.8745418787499999
  0.1128474995000000  0.3749953732500000  0.1245418787500000
  0.4878474995000001  0.9999953732499999  0.7495418787500000
  0.2378474995000000  0.4999953732500000  0.1245418787500000
  0.3628474995000000  0.8749953732499999  0.9995418787500000
  0.3628474995000000  0.4999953732500000  0.8745418787499999
  0.8628474995000001  0.8749953732500001  0.2495418787500000
  0.9878474995000001  0.3749953732500000  0.6245418787500000
  0.7378474995000002  0.1249953732500000  0.7495418787500000
  0.1128474995000000  0.2499953732500000  0.7495418787500000
  0.1128474995000000  0.2499953732500000  0.9995418787500000
  0.8628474995000003  0.6249953732500000  0.7495418787500000
  0.7378474994999999  0.4999953732500000  0.6245418787500000
  0.2378474995000000  0.6249953732500000  0.9995418787500000
  0.9878474995000002  0.3749953732500000  0.4995418787499999
  0.4878474995000001  0.7499953732499999  0.8745418787499999
  0.8628474994999999  0.2499953732500000  0.2495418787500000
  0.3628474995000000  0.8749953732499999  0.7495418787500000
  0.3628474995000000  0.8749953732500001  0.8745418787499999
  0.9878474995000001  0.9999953732500000  0.2495418787500000
  0.1128474995000000  0.2499953732500000  0.8745418787499999
  0.7378474994999999  0.1249953732500000  0.9995418787500000
  0.8628474995000003  0.8749953732500001  0.1245418787500000
  0.8628474995000003  0.1249953732500000  0.3745418787499999
  0.4878474995000001  0.9999953732499999  0.6245418787500000
  0.2378474995000000  0.4999953732500000  0.2495418787500000
  0.3628474994999999  0.6249953732500000  0.1245418787500000
  0.1128474995000000  0.3749953732500000  0.2495418787500000
  0.4878474995000000  0.8749953732500001  0.1245418787500000
  0.3628474995000000  0.8749953732500001  0.2495418787500000
  0.7378474994999999  0.3749953732500000  0.4995418787499999
  0.4878474995000001  0.8749953732499999  0.7495418787500000
  0.2378474995000000  0.6249953732500000  0.1245418787500000
  0.9878474995000002  0.3749953732500000  0.1245418787500000
  0.3628474995000001  0.7499953732499999  0.7495418787500000
  0.1128474995000000  0.1249953732500000  0.4995418787499999
  0.1128474995000000  0.1249953732500000  0.3745418787499999
  0.7378474994999999  0.3749953732500000  0.3745418787499999
  0.3628474995000000  0.7499953732500000  0.1245418787500000
  0.8628474994999999  0.7499953732499999  0.6245418787500000
  0.2378474995000000  0.6249953732500000  0.4995418787499999
  0.8628474995000003  0.1249953732500000  0.7495418787500000
  0.9878474995000002  0.9999953732500000  0.8745418787499999
  0.4878474995000000  0.8749953732500001  0.8745418787499999
  0.7378474994999999  0.3749953732500000  0.9995418787500000
  0.2378474995000000  0.4999953732500000  0.9995418787500000
  0.3628474995000001  0.7499953732499999  0.2495418787500000
  0.3628474995000001  0.7499953732499999  0.6245418787500000
  0.7378474994999999  0.3749953732500000  0.7495418787500000
  0.8628474995000003  0.1249953732500000  0.8745418787499999
  0.4878474995000001  0.8749953732499999  0.6245418787500000
  0.2378474995000000  0.6249953732500000  0.2495418787500000
  0.3628474995000000  0.7499953732500000  0.4995418787499999
  0.3628474995000001  0.7499953732499999  0.3745418787499999
  0.9878474995000001  0.9999953732499999  0.9995418787500000
  0.8628474995000001  0.7499953732500000  0.4995418787499999
  0.1128474995000000  0.1249953732500000  0.2495418787500000
  0.7378474994999999  0.3749953732500000  0.6245418787500000
  0.7378474994999999  0.3749953732500000  0.8745418787499999
  0.2378474995000000  0.6249953732500000  0.3745418787499999
  0.4878474995000000  0.8749953732500001  0.4995418787499999
  0.8628474995000001  0.7499953732499999  0.3745418787499999
  0.9878474994999999  0.2499953732500000  0.9995418787500000
  0.3628474995000000  0.6249953732500000  0.6245418787500000
  0.1128474995000000  0.1249953732500000  0.6245418787500000
  0.4878474995000000  0.8749953732499999  0.3745418787499999
  0.4878474995000001  0.8749953732500001  0.2495418787500000
  0.8628474995000001  0.7499953732500000  0.1245418787500000
  0.3628474995000000  0.8749953732500001  0.1245418787500000
  0.1128474995000000  0.1249953732500000  0.9995418787500000
  0.7378474994999999  0.2499953732500000  0.8745418787499999
  0.7378474994999999  0.4999953732500000  0.2495418787500000
  0.9878474995000001  0.3749953732500000  0.2495418787500000
  0.3628474995000000  0.6249953732500000  0.7495418787500000
  0.4878474995000001  0.9999953732500000  0.1245418787500000
  0.2378474995000000  0.4999953732500000  0.7495418787500000
  0.9878474995000001  0.9999953732499999  0.6245418787500000
  0.1128474995000000  0.2499953732500000  0.1245418787500000
  0.7378474994999999  0.2499953732500000  0.7495418787500000
  0.2378474995000000  0.6249953732500000  0.7495418787500000
  0.8628474995000001  0.1249953732500000  0.6245418787500000
  0.7378474994999999  0.3749953732500000  0.2495418787500000
  0.8628474995000001  0.7499953732499999  0.7495418787500000
  0.7378474994999999  0.2499953732500000  0.9995418787500000
  0.8628474995000001  0.1249953732500000  0.9995418787500000
  0.8628474994999999  0.7499953732499999  0.2495418787500000
  0.3628474995000000  0.7499953732499999  0.8745418787499999
  0.3628474994999999  0.6249953732500000  0.9995418787500000
  0.1128474995000000  0.1249953732500000  0.7495418787500000
  0.7378474994999999  0.3749953732500000  0.1245418787500000
  0.2378474995000000  0.6249953732500000  0.6245418787500000
  0.7378474995000002  0.4999953732500000  0.1245418787500000
  0.4878474995000000  0.8749953732499999  0.9995418787500000
  0.2378474995000000  0.4999953732500000  0.8745418787499999
  0.3628474995000000  0.7499953732499999  0.9995418787500000
  0.9878474995000002  0.9999953732499999  0.7495418787500000
  0.3628474994999999  0.6249953732500000  0.8745418787499999
  0.1128474995000000  0.1249953732500000  0.8745418787499999
  0.9878474995000001  0.2499953732500000  0.8745418787499999
  0.7378474994999999  0.1249953732500000  0.6245418787500000
  0.9878474995000002  0.1249953732500000  0.3745418787499999
  0.6128474995000001  0.1249953732500000  0.1245418787500000
  0.3628474995000001  0.9999953732499999  0.3745418787499999
  0.3628474995000000  0.4999953732500000  0.4995418787499999
  0.7378474994999999  0.4999953732500000  0.9995418787500000
  0.9878474995000001  0.8749953732499999  0.6245418787500000
  0.7378474994999999  0.1249953732500000  0.3745418787499999
  0.1128474995000000  0.3749953732500000  0.4995418787499999
  0.3628474995000001  0.9999953732500000  0.2495418787500000
  0.3628474995000001  0.4999953732500000  0.6245418787500000
  0.9878474995000002  0.3749953732500000  0.8745418787499999
  0.4878474995000001  0.7499953732500000  0.4995418787499999
  0.1128474995000000  0.4999953732500000  0.1245418787500000
  0.2378474995000000  0.7499953732500000  0.4995418787499999
  0.8628474995000001  0.2499953732500000  0.3745418787499999
  0.4878474995000001  0.7499953732499999  0.6245418787500000
  0.2378474995000000  0.3749953732500000  0.9995418787500000
  0.9878474995000001  0.2499953732500000  0.3745418787499999
  0.9878474995000002  0.3749953732500000  0.7495418787500000
  0.8628474995000003  0.8749953732500001  0.4995418787499999
  0.2378474995000000  0.3749953732500000  0.6245418787500000
  0.8628474995000003  0.6249953732500000  0.4995418787499999
  0.4878474995000001  0.9999953732499999  0.9995418787500000
  0.2378474995000000  0.3749953732500000  0.8745418787499999
  0.8628474995000003  0.6249953732500000  0.3745418787499999
  0.3628474995000001  0.9999953732499999  0.6245418787500000
  0.1128474995000000  0.3749953732500000  0.9995418787500000
  0.6128474995000001  0.9999953732500000  0.8745418787499999
  0.8628474995000001  0.2499953732500000  0.4995418787499999
  0.6128474995000001  0.1249953732500000  0.2495418787500000
  0.1128474995000000  0.3749953732500000  0.6245418787500000
  0.7378474994999999  0.1249953732500000  0.2495418787500000
  0.3628474995000000  0.4999953732500000  0.2495418787500000
  0.4878474995000001  0.7499953732499999  0.3745418787499999
  0.2378474995000000  0.7499953732499999  0.3745418787499999
  0.2378474995000000  0.3749953732500000  0.7495418787500000
  0.9878474995000001  0.2499953732500000  0.4995418787499999
  0.8628474995000003  0.8749953732499999  0.3745418787499999
  0.7378474994999999  0.6249953732500000  0.2495418787500000
  0.6128474995000001  0.9999953732499999  0.9995418787500000
  0.6128474995000001  0.9999953732499999  0.7495418787500000