POSCAR_8x8x8_FAPI
 1.0000000000000000
    51.2596817016000017    0.0000000000000000    0.0000000000000000
     0.0000066744000000   50.1249618527999985    0.0000000000000000
     0.0000000000000000    0.0000000000000000   50.7005615232000011
   C   H   I   N  Pb
 512 2560 1536 1024 512
Direct
  0.0625001266250000  0.0650724992500000  0.0625000000000000
  0.1875001266250000  0.9400724992500000  0.5625000000000000
  0.8125001266249999  0.6900724992500000  0.6875000000000000
  0.1875001266250000  0.9400724992500000  0.6875000000000000
  0.8125001266249999  0.6900724992500000  0.5625000000000000
  0.1875001266250000  0.9400724992500000  0.8125000000000000
  0.1875001266250000  0.9400724992500000  0.9375000000000000
  0.8125001266249999  0.6900724992500000  0.4375000000000000
  0.3125001266250000  0.0650724992500000  0.0625000000000000
  0.8125001266249999  0.6900724992500000  0.3125000000000000
  0.3125001266250000  0.0650724992500000  0.1875000000000000
  0.3125001266250000  0.0650724992500000  0.3125000000000000
  0.1875001266250000  0.9400724992500000  0.4375000000000000
  0.8125001266249999  0.6900724992500000  0.1875000000000000
  0.8125001266249999  0.6900724992500000  0.0625000000000000
  0.3125001266250000  0.0650724992500000  0.5625000000000000
  0.3125001266250000  0.0650724992500000  0.6875000000000000
  0.8125001266249999  0.5650724992500000  0.9375000000000000
  0.3125001266250000  0.0650724992500000  0.8125000000000000
  0.8125001266249999  0.5650724992500000  0.8125000000000000
  0.3125001266250000  0.0650724992500000  0.9375000000000000
  0.3125001266250000  0.1900724992500000  0.0625000000000000
  0.8125001266249999  0.5650724992500000  0.6875000000000000
  0.3125001266250000  0.1900724992500000  0.1875000000000000
  0.8125001266249999  0.5650724992500000  0.5625000000000000
  0.3125001266250000  0.0650724992500000  0.4375000000000000
  0.3125001266250000  0.1900724992500000  0.3125000000000000
  0.8125001266249999  0.6900724992500000  0.8125000000000000
  0.8125001266249999  0.6900724992500000  0.9375000000000000
  0.1875001266250000  0.6900724992500000  0.4375000000000000
  0.8125001266249999  0.9400724992500000  0.0625000000000000
  0.1875001266250000  0.6900724992500000  0.5625000000000000
  0.1875001266250000  0.6900724992500000  0.6875000000000000
  0.8125001266249998  0.8150724992500000  0.9375000000000000
  0.1875001266250000  0.6900724992500000  0.8125000000000000
  0.8125001266249998  0.8150724992500000  0.8125000000000000
  0.1875001266250000  0.6900724992500000  0.9375000000000000
  0.1875001266250000  0.8150724992500000  0.0625000000000000
  0.8125001266249998  0.8150724992500000  0.6875000000000000
  0.1875001266250000  0.8150724992500000  0.1875000000000000
  0.1875001266250000  0.9400724992500000  0.3125000000000000
  0.8125001266249998  0.8150724992500000  0.5625000000000000
  0.1875001266250000  0.8150724992500000  0.4375000000000000
  0.8125001266249998  0.8150724992500000  0.4375000000000000
  0.1875001266250000  0.8150724992500000  0.5625000000000000
  0.8125001266249998  0.8150724992500000  0.3125000000000000
  0.1875001266250000  0.8150724992500000  0.6875000000000000
  0.1875001266250000  0.8150724992500000  0.8125000000000000
  0.8125001266249998  0.8150724992500000  0.1875000000000000
  0.1875001266250000  0.8150724992500000  0.9375000000000000
  0.8125001266249998  0.8150724992500000  0.0625000000000000
  0.1875001266250000  0.9400724992500000  0.0625000000000000
  0.1875001266250000  0.9400724992500000  0.1875000000000000
  0.1875001266250000  0.8150724992500000  0.3125000000000000
  0.8125001266249999  0.9400724992500000  0.1875000000000000
  0.3125001266250000  0.1900724992500000  0.4375000000000000
  0.3125001266250000  0.1900724992500000  0.5625000000000000
  0.8125001266249999  0.3150724992500000  0.9375000000000000
  0.3125001266250000  0.4400724992500000  0.8125000000000000
  0.8125001266249999  0.3150724992500000  0.8125000000000000
  0.3125001266250000  0.4400724992500000  0.9375000000000000
  0.3125001266250000  0.5650724992500000  0.0625000000000000
  0.8125001266249999  0.3150724992500000  0.6875000000000000
  0.3125001266250000  0.5650724992500000  0.1875000000000000
  0.8125001266249999  0.3150724992500000  0.5625000000000000
  0.3125001266250000  0.5650724992500000  0.3125000000000000
  0.3125001266250000  0.5650724992500000  0.4375000000000000
  0.8125001266249999  0.3150724992500000  0.4375000000000000
  0.3125001266250000  0.4400724992500000  0.6875000000000000
  0.3125001266250000  0.5650724992500000  0.5625000000000000
  0.3125001266250000  0.5650724992500000  0.6875000000000000
  0.3125001266250000  0.5650724992500000  0.8125000000000000
  0.8125001266249999  0.3150724992500000  0.1875000000000000
  0.3125001266250000  0.5650724992500000  0.9375000000000000
  0.8125001266249999  0.3150724992500000  0.0625000000000000
  0.3125001266250000  0.6900724992500000  0.0625000000000000
  0.3125001266250000  0.6900724992500000  0.1875000000000000
  0.8125001266249999  0.1900724992500000  0.9375000000000000
  0.3125001266250000  0.6900724992500000  0.3125000000000000
  0.8125001266249999  0.1900724992500000  0.8125000000000000
  0.3125001266250000  0.6900724992500000  0.4375000000000000
  0.8125001266249999  0.3150724992500000  0.3125000000000000
  0.8125001266249999  0.5650724992500000  0.4375000000000000
  0.3125001266250000  0.4400724992500000  0.5625000000000000
  0.3125001266250000  0.4400724992500000  0.4375000000000000
  0.8125001266249999  0.5650724992500000  0.3125000000000000
  0.3125001266250000  0.1900724992500000  0.6875000000000000
  0.3125001266250000  0.1900724992500000  0.8125000000000000
  0.8125001266249999  0.5650724992500000  0.1875000000000000
  0.3125001266250000  0.1900724992500000  0.9375000000000000
  0.8125001266249999  0.5650724992500000  0.0625000000000000
  0.3125001266250000  0.3150724992500000  0.0625000000000000
  0.3125001266250000  0.3150724992500000  0.1875000000000000
  0.8125001266249999  0.4400724992500000  0.9375000000000000
  0.3125001266250000  0.3150724992500000  0.3125000000000000
  0.8125001266249999  0.4400724992500000  0.8125000000000000
  0.8125001266249999  0.4400724992500000  0.0625000000000000
  0.3125001266250000  0.3150724992500000  0.4375000000000000
  0.8125001266249999  0.4400724992500000  0.6875000000000000
  0.3125001266250000  0.3150724992500000  0.6875000000000000
  0.8125001266249999  0.4400724992500000  0.5625000000000000
  0.3125001266250000  0.3150724992500000  0.8125000000000000
  0.3125001266250000  0.3150724992500000  0.9375000000000000
  0.8125001266249999  0.4400724992500000  0.4375000000000000
  0.3125001266250000  0.4400724992500000  0.0625000000000000
  0.8125001266249999  0.4400724992500000  0.3125000000000000
  0.3125001266250000  0.4400724992500000  0.1875000000000000
  0.3125001266250000  0.4400724992500000  0.3125000000000000
  0.8125001266249999  0.4400724992500000  0.1875000000000000
  0.3125001266250000  0.3150724992500000  0.5625000000000000
  0.1875001266250000  0.6900724992500000  0.3125000000000000
  0.1875001266250000  0.6900724992500000  0.1875000000000000
  0.8125001266249999  0.9400724992500000  0.3125000000000000
  0.0625001266250000  0.9400724992500000  0.0625000000000000
  0.9375001266249999  0.4400724992500000  0.3125000000000000
  0.0625001266250000  0.9400724992500000  0.1875000000000000
  0.0625001266250000  0.9400724992500000  0.3125000000000000
  0.9375001266249999  0.4400724992500000  0.1875000000000000
  0.0625001266250000  0.9400724992500000  0.4375000000000000
  0.9375001266249999  0.4400724992500000  0.0625000000000000
  0.0625001266250000  0.9400724992500000  0.5625000000000000
  0.0625001266250000  0.9400724992500000  0.6875000000000000
  0.9375001266249999  0.3150724992500000  0.9375000000000000
  0.0625001266250000  0.9400724992500000  0.8125000000000000
  0.9375001266249999  0.4400724992500000  0.4375000000000000
  0.9375001266249999  0.3150724992500000  0.8125000000000000
  0.1875001266250000  0.0650724992500000  0.0625000000000000
  0.9375001266249999  0.3150724992500000  0.6875000000000000
  0.1875001266250000  0.0650724992500000  0.1875000000000000
  0.9375001266249999  0.3150724992500000  0.5625000000000000
  0.1875001266250000  0.0650724992500000  0.3125000000000000
  0.1875001266250000  0.0650724992500000  0.4375000000000000
  0.9375001266249999  0.3150724992500000  0.4375000000000000
  0.1875001266250000  0.0650724992500000  0.5625000000000000
  0.9375001266249999  0.3150724992500000  0.3125000000000000
  0.1875001266250000  0.0650724992500000  0.6875000000000000
  0.1875001266250000  0.0650724992500000  0.8125000000000000
  0.0625001266250000  0.9400724992500000  0.9375000000000000
  0.9375001266249999  0.3150724992500000  0.1875000000000000
  0.0625001266250000  0.8150724992500000  0.9375000000000000
  0.9375001266249999  0.4400724992500000  0.5625000000000000
  0.0625001266250000  0.5650724992500000  0.9375000000000000
  0.0625001266250000  0.6900724992500000  0.0625000000000000
  0.9375001266249999  0.5650724992500000  0.6875000000000000
  0.0625001266250000  0.6900724992500000  0.1875000000000000
  0.9375001266249999  0.5650724992500000  0.5625000000000000
  0.0625001266250000  0.6900724992500000  0.3125000000000000
  0.0625001266250000  0.6900724992500000  0.4375000000000000
  0.9375001266249999  0.5650724992500000  0.4375000000000000
  0.0625001266250000  0.6900724992500000  0.5625000000000000
  0.9375001266249999  0.5650724992500000  0.3125000000000000
  0.0625001266250000  0.6900724992500000  0.6875000000000000
  0.0625001266250000  0.8150724992500000  0.8125000000000000
  0.0625001266250000  0.6900724992500000  0.8125000000000000
  0.0625001266250000  0.6900724992500000  0.9375000000000000
  0.9375001266249999  0.5650724992500000  0.0625000000000000
  0.0625001266250000  0.8150724992500000  0.0625000000000000
  0.0625001266250000  0.8150724992500000  0.1875000000000000
  0.9375001266249999  0.4400724992500000  0.9375000000000000
  0.0625001266250000  0.8150724992500000  0.3125000000000000
  0.9375001266249999  0.4400724992500000  0.8125000000000000
  0.0625001266250000  0.8150724992500000  0.4375000000000000
  0.0625001266250000  0.8150724992500000  0.5625000000000000
  0.9375001266249999  0.4400724992500000  0.6875000000000000
  0.0625001266250000  0.8150724992500000  0.6875000000000000
  0.9375001266249999  0.5650724992500000  0.1875000000000000
  0.1875001266250000  0.0650724992500000  0.9375000000000000
  0.9375001266249999  0.3150724992500000  0.0625000000000000
  0.1875001266250000  0.1900724992500000  0.0625000000000000
  0.1875001266250000  0.4400724992500000  0.3125000000000000
  0.1875001266250000  0.4400724992500000  0.4375000000000000
  0.9375001266249999  0.0650724992500000  0.4375000000000000
  0.1875001266250000  0.4400724992500000  0.5625000000000000
  0.9375001266249999  0.0650724992500000  0.3125000000000000
  0.1875001266250000  0.4400724992500000  0.6875000000000000
  0.1875001266250000  0.4400724992500000  0.8125000000000000
  0.9375001266249999  0.0650724992500000  0.1875000000000000
  0.1875001266250000  0.4400724992500000  0.9375000000000000
  0.9375001266249999  0.0650724992500000  0.0625000000000000
  0.1875001266250000  0.5650724992500000  0.0625000000000000
  0.9375001266249999  0.0650724992500000  0.5625000000000000
  0.1875001266250000  0.5650724992500000  0.1875000000000000
  0.1875001266250000  0.5650724992500000  0.3125000000000000
  0.8125001266249999  0.9400724992500000  0.8125000000000000
  0.1875001266250000  0.5650724992500000  0.4375000000000000
  0.1875001266250000  0.5650724992500000  0.5625000000000000
  0.8125001266249999  0.9400724992500000  0.6875000000000000
  0.1875001266250000  0.5650724992500000  0.6875000000000000
  0.8125001266249999  0.9400724992500000  0.5625000000000000
  0.1875001266250000  0.5650724992500000  0.8125000000000000
  0.1875001266250000  0.5650724992500000  0.9375000000000000
  0.8125001266249999  0.9400724992500000  0.4375000000000000
  0.1875001266250000  0.6900724992500000  0.0625000000000000
  0.8125001266249999  0.9400724992500000  0.9375000000000000
  0.1875001266250000  0.4400724992500000  0.1875000000000000
  0.9375001266249999  0.0650724992500000  0.6875000000000000
  0.1875001266250000  0.4400724992500000  0.0625000000000000
  0.1875001266250000  0.1900724992500000  0.1875000000000000
  0.9375001266249999  0.1900724992500000  0.9375000000000000
  0.1875001266250000  0.1900724992500000  0.3125000000000000
  0.9375001266249999  0.1900724992500000  0.8125000000000000
  0.1875001266250000  0.1900724992500000  0.4375000000000000
  0.1875001266250000  0.1900724992500000  0.5625000000000000
  0.9375001266249999  0.1900724992500000  0.6875000000000000
  0.1875001266250000  0.1900724992500000  0.6875000000000000
  0.9375001266249999  0.1900724992500000  0.5625000000000000
  0.1875001266250000  0.1900724992500000  0.8125000000000000
  0.1875001266250000  0.1900724992500000  0.9375000000000000
  0.9375001266249999  0.1900724992500000  0.4375000000000000
  0.1875001266250000  0.3150724992500000  0.0625000000000000
  0.9375001266249999  0.1900724992500000  0.3125000000000000
  0.1875001266250000  0.3150724992500000  0.1875000000000000
  0.1875001266250000  0.3150724992500000  0.3125000000000000
  0.9375001266249999  0.1900724992500000  0.1875000000000000
  0.1875001266250000  0.3150724992500000  0.4375000000000000
  0.9375001266249999  0.1900724992500000  0.0625000000000000
  0.1875001266250000  0.3150724992500000  0.5625000000000000
  0.1875001266250000  0.3150724992500000  0.6875000000000000
  0.9375001266249999  0.0650724992500000  0.9375000000000000
  0.1875001266250000  0.3150724992500000  0.8125000000000000
  0.9375001266249999  0.0650724992500000  0.8125000000000000
  0.1875001266250000  0.3150724992500000  0.9375000000000000
  0.3125001266250000  0.6900724992500000  0.5625000000000000
  0.9375001266249999  0.5650724992500000  0.8125000000000000
  0.8125001266249999  0.1900724992500000  0.6875000000000000
  0.8125001266249999  0.1900724992500000  0.5625000000000000
  0.5625001266249999  0.0650724992500000  0.4375000000000000
  0.6875001266250000  0.3150724992500000  0.4375000000000000
  0.5625001266249999  0.0650724992500000  0.5625000000000000
  0.6875001266250000  0.3150724992500000  0.3125000000000000
  0.5625001266249999  0.0650724992500000  0.6875000000000000
  0.5625001266249999  0.0650724992500000  0.8125000000000000
  0.6875001266250000  0.3150724992500000  0.1875000000000000
  0.5625001266249999  0.0650724992500000  0.9375000000000000
  0.6875001266250000  0.3150724992500000  0.0625000000000000
  0.5625001266249999  0.1900724992500000  0.0625000000000000
  0.5625001266249999  0.1900724992500000  0.1875000000000000
  0.5625001266249999  0.0650724992500000  0.3125000000000000
  0.6875001266250000  0.1900724992500000  0.9375000000000000
  0.6875001266250000  0.1900724992500000  0.8125000000000000
  0.5625001266249999  0.1900724992500000  0.4375000000000000
  0.5625001266249999  0.1900724992500000  0.5625000000000000
  0.6875001266250000  0.1900724992500000  0.6875000000000000
  0.5625001266249999  0.1900724992500000  0.6875000000000000
  0.6875001266250000  0.1900724992500000  0.5625000000000000
  0.5625001266249999  0.1900724992500000  0.8125000000000000
  0.5625001266249999  0.1900724992500000  0.9375000000000000
  0.6875001266250000  0.1900724992500000  0.4375000000000000
  0.5625001266249999  0.3150724992500000  0.0625000000000000
  0.6875001266250000  0.1900724992500000  0.3125000000000000
  0.5625001266249999  0.1900724992500000  0.3125000000000000
  0.5625001266249999  0.3150724992500000  0.1875000000000000
  0.6875001266250000  0.3150724992500000  0.5625000000000000
  0.6875001266250000  0.3150724992500000  0.6875000000000000
  0.4375001266249999  0.8150724992500000  0.3125000000000000
  0.6875001266250000  0.4400724992500000  0.8125000000000000
  0.4375001266249999  0.8150724992500000  0.4375000000000000
  0.4375001266249999  0.8150724992500000  0.5625000000000000
  0.6875001266250000  0.4400724992500000  0.6875000000000000
  0.4375001266249999  0.8150724992500000  0.6875000000000000
  0.6875001266250000  0.4400724992500000  0.5625000000000000
  0.4375001266249999  0.8150724992500000  0.8125000000000000
  0.4375001266249999  0.8150724992500000  0.9375000000000000
  0.6875001266250000  0.4400724992500000  0.4375000000000000
  0.4375001266249999  0.9400724992500000  0.0625000000000000
  0.5625001266249999  0.0650724992500000  0.1875000000000000
  0.6875001266250000  0.4400724992500000  0.3125000000000000
  0.4375001266249999  0.9400724992500000  0.3125000000000000
  0.6875001266250000  0.4400724992500000  0.1875000000000000
  0.4375001266249999  0.9400724992500000  0.4375000000000000
  0.6875001266250000  0.4400724992500000  0.0625000000000000
  0.4375001266249999  0.9400724992500000  0.5625000000000000
  0.4375001266249999  0.9400724992500000  0.6875000000000000
  0.6875001266250000  0.3150724992500000  0.9375000000000000
  0.4375001266249999  0.9400724992500000  0.8125000000000000
  0.6875001266250000  0.3150724992500000  0.8125000000000000
  0.4375001266249999  0.9400724992500000  0.9375000000000000
  0.5625001266249999  0.0650724992500000  0.0625000000000000
  0.4375001266249999  0.9400724992500000  0.1875000000000000
  0.6875001266250000  0.4400724992500000  0.9375000000000000
  0.5625001266249999  0.3150724992500000  0.3125000000000000
  0.5625001266249999  0.3150724992500000  0.4375000000000000
  0.5625001266249999  0.9400724992500000  0.6875000000000000
  0.5625001266249999  0.5650724992500000  0.6875000000000000
  0.5625001266249999  0.9400724992500000  0.5625000000000000
  0.5625001266249999  0.5650724992500000  0.8125000000000000
  0.5625001266249999  0.5650724992500000  0.9375000000000000
  0.5625001266249999  0.9400724992500000  0.4375000000000000
  0.5625001266249999  0.6900724992500000  0.0625000000000000
  0.5625001266249999  0.9400724992500000  0.3125000000000000
  0.5625001266249999  0.6900724992500000  0.1875000000000000
  0.5625001266249999  0.6900724992500000  0.3125000000000000
  0.5625001266249999  0.9400724992500000  0.1875000000000000
  0.5625001266249999  0.5650724992500000  0.5625000000000000
  0.5625001266249999  0.6900724992500000  0.4375000000000000
  0.5625001266249999  0.6900724992500000  0.5625000000000000
  0.5625001266249999  0.6900724992500000  0.6875000000000000
  0.5625001266249999  0.8150724992500000  0.9375000000000000
  0.5625001266249999  0.6900724992500000  0.8125000000000000
  0.5625001266249999  0.8150724992500000  0.8125000000000000
  0.5625001266249999  0.6900724992500000  0.9375000000000000
  0.5625001266249999  0.8150724992500000  0.0625000000000000
  0.5625001266249999  0.8150724992500000  0.6875000000000000
  0.5625001266249999  0.8150724992500000  0.1875000000000000
  0.5625001266249999  0.8150724992500000  0.5625000000000000
  0.5625001266249999  0.8150724992500000  0.3125000000000000
  0.5625001266249999  0.9400724992500000  0.0625000000000000
  0.6875001266250000  0.1900724992500000  0.1875000000000000
  0.5625001266249999  0.5650724992500000  0.4375000000000000
  0.5625001266249999  0.5650724992500000  0.3125000000000000
  0.6875001266250000  0.1900724992500000  0.0625000000000000
  0.5625001266249999  0.3150724992500000  0.5625000000000000
  0.5625001266249999  0.3150724992500000  0.6875000000000000
  0.6875001266250000  0.0650724992500000  0.9375000000000000
  0.5625001266249999  0.3150724992500000  0.8125000000000000
  0.6875001266250000  0.0650724992500000  0.8125000000000000
  0.5625001266249999  0.3150724992500000  0.9375000000000000
  0.5625001266249999  0.4400724992500000  0.0625000000000000
  0.6875001266250000  0.0650724992500000  0.6875000000000000
  0.5625001266249999  0.4400724992500000  0.1875000000000000
  0.6875001266250000  0.0650724992500000  0.5625000000000000
  0.5625001266249999  0.9400724992500000  0.8125000000000000
  0.5625001266249999  0.4400724992500000  0.3125000000000000
  0.6875001266250000  0.0650724992500000  0.4375000000000000
  0.5625001266249999  0.4400724992500000  0.5625000000000000
  0.6875001266250000  0.0650724992500000  0.3125000000000000
  0.5625001266249999  0.4400724992500000  0.6875000000000000
  0.5625001266249999  0.4400724992500000  0.8125000000000000
  0.6875001266250000  0.0650724992500000  0.1875000000000000
  0.5625001266249999  0.4400724992500000  0.9375000000000000
  0.6875001266250000  0.0650724992500000  0.0625000000000000
  0.5625001266249999  0.5650724992500000  0.0625000000000000
  0.5625001266249999  0.5650724992500000  0.1875000000000000
  0.5625001266249999  0.9400724992500000  0.9375000000000000
  0.5625001266249999  0.4400724992500000  0.4375000000000000
  0.4375001266249999  0.8150724992500000  0.1875000000000000
  0.4375001266249999  0.8150724992500000  0.0625000000000000
  0.6875001266250000  0.5650724992500000  0.0625000000000000
  0.3125001266250000  0.9400724992500000  0.9375000000000000
  0.8125001266249999  0.0650724992500000  0.0625000000000000
  0.4375001266249999  0.0650724992500000  0.0625000000000000
  0.4375001266249999  0.0650724992500000  0.1875000000000000
  0.6875001266250000  0.9400724992500000  0.9375000000000000
  0.4375001266249999  0.0650724992500000  0.3125000000000000
  0.6875001266250000  0.9400724992500000  0.8125000000000000
  0.4375001266249999  0.0650724992500000  0.4375000000000000
  0.4375001266249999  0.0650724992500000  0.5625000000000000
  0.6875001266250000  0.9400724992500000  0.6875000000000000
  0.4375001266249999  0.0650724992500000  0.6875000000000000
  0.8125001266249999  0.0650724992500000  0.1875000000000000
  0.6875001266250000  0.9400724992500000  0.5625000000000000
  0.4375001266249999  0.0650724992500000  0.9375000000000000
  0.6875001266250000  0.9400724992500000  0.4375000000000000
  0.4375001266249999  0.1900724992500000  0.0625000000000000
  0.6875001266250000  0.9400724992500000  0.3125000000000000
  0.4375001266249999  0.1900724992500000  0.1875000000000000
  0.4375001266249999  0.1900724992500000  0.3125000000000000
  0.6875001266250000  0.9400724992500000  0.1875000000000000
  0.4375001266249999  0.1900724992500000  0.4375000000000000
  0.6875001266250000  0.9400724992500000  0.0625000000000000
  0.4375001266249999  0.1900724992500000  0.5625000000000000
  0.4375001266249999  0.1900724992500000  0.6875000000000000
  0.4375001266249999  0.0650724992500000  0.8125000000000000
  0.6875001266249999  0.8150724992500000  0.9375000000000000
  0.3125001266250000  0.9400724992500000  0.8125000000000000
  0.8125001266249999  0.0650724992500000  0.3125000000000000
  0.3125001266250000  0.6900724992500000  0.8125000000000000
  0.3125001266250000  0.6900724992500000  0.9375000000000000
  0.8125001266249999  0.1900724992500000  0.4375000000000000
  0.3125001266250000  0.8150724992500000  0.0625000000000000
  0.8125001266249999  0.1900724992500000  0.3125000000000000
  0.3125001266250000  0.8150724992500000  0.1875000000000000
  0.3125001266250000  0.8150724992500000  0.3125000000000000
  0.8125001266249999  0.1900724992500000  0.1875000000000000
  0.3125001266250000  0.8150724992500000  0.4375000000000000
  0.8125001266249999  0.1900724992500000  0.0625000000000000
  0.3125001266250000  0.8150724992500000  0.5625000000000000
  0.3125001266250000  0.9400724992500000  0.6875000000000000
  0.3125001266250000  0.8150724992500000  0.6875000000000000
  0.3125001266250000  0.8150724992500000  0.8125000000000000
  0.8125001266249999  0.0650724992500000  0.8125000000000000
  0.3125001266250000  0.8150724992500000  0.9375000000000000
  0.3125001266250000  0.9400724992500000  0.0625000000000000
  0.8125001266249999  0.0650724992500000  0.6875000000000000
  0.3125001266250000  0.9400724992500000  0.1875000000000000
  0.8125001266249999  0.0650724992500000  0.5625000000000000
  0.3125001266250000  0.9400724992500000  0.3125000000000000
  0.3125001266250000  0.9400724992500000  0.4375000000000000
  0.8125001266249999  0.0650724992500000  0.4375000000000000
  0.3125001266250000  0.9400724992500000  0.5625000000000000
  0.8125001266249999  0.0650724992500000  0.9375000000000000
  0.4375001266249999  0.1900724992500000  0.8125000000000000
  0.6875001266249999  0.8150724992500000  0.8125000000000000
  0.4375001266249999  0.1900724992500000  0.9375000000000000
  0.4375001266249999  0.5650724992500000  0.1875000000000000
  0.4375001266249999  0.5650724992500000  0.3125000000000000
  0.6875001266250000  0.6900724992500000  0.1875000000000000
  0.4375001266249999  0.5650724992500000  0.4375000000000000
  0.6875001266250000  0.6900724992500000  0.0625000000000000
  0.4375001266249999  0.5650724992500000  0.5625000000000000
  0.4375001266249999  0.5650724992500000  0.6875000000000000
  0.6875001266250000  0.5650724992500000  0.9375000000000000
  0.4375001266249999  0.5650724992500000  0.8125000000000000
  0.6875001266250000  0.5650724992500000  0.8125000000000000
  0.4375001266249999  0.5650724992500000  0.9375000000000000
  0.6875001266250000  0.6900724992500000  0.3125000000000000
  0.4375001266249999  0.6900724992500000  0.0625000000000000
  0.4375001266249999  0.6900724992500000  0.1875000000000000
  0.6875001266250000  0.5650724992500000  0.5625000000000000
  0.4375001266249999  0.6900724992500000  0.3125000000000000
  0.4375001266249999  0.6900724992500000  0.4375000000000000
  0.6875001266250000  0.5650724992500000  0.4375000000000000
  0.4375001266249999  0.6900724992500000  0.5625000000000000
  0.6875001266250000  0.5650724992500000  0.3125000000000000
  0.4375001266249999  0.6900724992500000  0.6875000000000000
  0.4375001266249999  0.6900724992500000  0.8125000000000000
  0.6875001266250000  0.5650724992500000  0.1875000000000000
  0.4375001266249999  0.6900724992500000  0.9375000000000000
  0.6875001266250000  0.5650724992500000  0.6875000000000000
  0.4375001266249999  0.5650724992500000  0.0625000000000000
  0.6875001266250000  0.6900724992500000  0.4375000000000000
  0.4375001266249999  0.4400724992500000  0.9375000000000000
  0.4375001266249999  0.3150724992500000  0.0625000000000000
  0.6875001266249999  0.8150724992500000  0.6875000000000000
  0.4375001266249999  0.3150724992500000  0.1875000000000000
  0.6875001266249999  0.8150724992500000  0.5625000000000000
  0.4375001266249999  0.3150724992500000  0.3125000000000000
  0.4375001266249999  0.3150724992500000  0.4375000000000000
  0.6875001266249999  0.8150724992500000  0.4375000000000000
  0.4375001266249999  0.3150724992500000  0.5625000000000000
  0.6875001266249999  0.8150724992500000  0.3125000000000000
  0.4375001266249999  0.3150724992500000  0.6875000000000000
  0.4375001266249999  0.3150724992500000  0.8125000000000000
  0.6875001266249999  0.8150724992500000  0.1875000000000000
  0.4375001266249999  0.3150724992500000  0.9375000000000000
  0.6875001266249999  0.8150724992500000  0.0625000000000000
  0.4375001266249999  0.4400724992500000  0.0625000000000000
  0.4375001266249999  0.4400724992500000  0.1875000000000000
  0.6875001266250000  0.6900724992500000  0.9375000000000000
  0.4375001266249999  0.4400724992500000  0.3125000000000000
  0.6875001266250000  0.6900724992500000  0.8125000000000000
  0.4375001266249999  0.4400724992500000  0.4375000000000000
  0.4375001266249999  0.4400724992500000  0.5625000000000000
  0.6875001266250000  0.6900724992500000  0.6875000000000000
  0.4375001266249999  0.4400724992500000  0.6875000000000000
  0.6875001266250000  0.6900724992500000  0.5625000000000000
  0.4375001266249999  0.4400724992500000  0.8125000000000000
  0.3125001266250000  0.6900724992500000  0.6875000000000000
  0.0625001266250000  0.5650724992500000  0.8125000000000000
  0.5625001266249999  0.8150724992500000  0.4375000000000000
  0.0625001266250000  0.5650724992500000  0.4375000000000000
  0.0625001266250000  0.0650724992500000  0.9375000000000000
  0.9375001266249999  0.9400724992500000  0.9375000000000000
  0.0625001266250000  0.4400724992500000  0.0625000000000000
  0.9375001266249999  0.9400724992500000  0.4375000000000000
  0.9375001266249998  0.8150724992500000  0.6875000000000000
  0.0625001266250000  0.0650724992500000  0.1875000000000000
  0.0625001266250000  0.3150724992500000  0.1875000000000000
  0.0625001266250000  0.4400724992500000  0.5625000000000000
  0.9375001266249999  0.6900724992500000  0.6875000000000000
  0.9375001266249999  0.6900724992500000  0.1875000000000000
  0.0625001266250000  0.4400724992500000  0.4375000000000000
  0.0625001266250000  0.0650724992500000  0.8125000000000000
  0.9375001266249998  0.8150724992500000  0.8125000000000000
  0.0625001266250000  0.3150724992500000  0.6875000000000000
  0.0625001266250000  0.3150724992500000  0.3125000000000000
  0.0625001266250000  0.0650724992500000  0.3125000000000000
  0.0625001266250000  0.1900724992500000  0.4375000000000000
  0.9375001266249999  0.6900724992500000  0.5625000000000000
  0.9375001266249998  0.8150724992500000  0.1875000000000000
  0.0625001266250000  0.1900724992500000  0.8125000000000000
  0.0625001266250000  0.0650724992500000  0.5625000000000000
  0.0625001266250000  0.1900724992500000  0.5625000000000000
  0.9375001266249998  0.8150724992500000  0.0625000000000000
  0.0625001266250000  0.4400724992500000  0.8125000000000000
  0.9375001266249999  0.9400724992500000  0.3125000000000000
  0.9375001266249999  0.9400724992500000  0.0625000000000000
  0.0625001266250000  0.1900724992500000  0.1875000000000000
  0.0625001266250000  0.5650724992500000  0.3125000000000000
  0.0625001266250000  0.3150724992500000  0.4375000000000000
  0.9375001266249999  0.9400724992500000  0.6875000000000000
  0.0625001266250000  0.4400724992500000  0.3125000000000000
  0.9375001266249998  0.8150724992500000  0.4375000000000000
  0.9375001266249999  0.6900724992500000  0.0625000000000000
  0.0625001266250000  0.3150724992500000  0.8125000000000000
  0.0625001266250000  0.5650724992500000  0.0625000000000000