POSCAR_2x2x2_MAPBr
 1.0000000000000000
    11.8399999999999999    0.0000000000000000    0.0000000000000000
     0.0000000000000000   11.8399999999999999    0.0000000000000000
     0.0000000000000000    0.0000000000000000   11.8399999999999999
  Br   C   H   N  Pb
  24   8  48   8   8
Direct
  0.4837764892414675  0.7500862043270509  0.7196028468743378
  0.4837764892414675  0.2500862043270509  0.7196028468743378
  0.2143885519699787  0.7499383326077158  0.4863459767643015
  0.2167409575451628  0.5000097781151531  0.2564241442933088
  0.4837764892414675  0.7500862043270509  0.2196028468743378
  0.2143885519699787  0.7499383326077158  0.9863459767643015
  0.2167409575451628  0.5000097781151531  0.7564241442933088
  0.7167409575451628  0.5000097781151531  0.7564241442933088
  0.7143885519699786  0.2499383326077158  0.4863459767643015
  0.7167409575451628  0.0000097781151531  0.2564241442933088
  0.9837764892414677  0.2500862043270509  0.2196028468743378
  0.7143885519699786  0.2499383326077158  0.9863459767643015
  0.7167409575451628  0.0000097781151531  0.7564241442933088
  0.9837764892414677  0.2500862043270509  0.7196028468743378
  0.7143885519699786  0.7499383326077158  0.4863459767643015
  0.7167409575451628  0.5000097781151531  0.2564241442933088
  0.9837764892414677  0.7500862043270509  0.2196028468743378
  0.7143885519699786  0.7499383326077158  0.9863459767643015
  0.2167409575451628  0.0000097781151531  0.7564241442933088
  0.2143885519699787  0.2499383326077158  0.9863459767643015
  0.9837764892414677  0.7500862043270509  0.7196028468743378
  0.2143885519699787  0.2499383326077158  0.4863459767643015
  0.2167409575451628  0.0000097781151531  0.2564241442933088
  0.4837764892414675  0.2500862043270509  0.2196028468743378
  0.9481366154633903  0.9999917787780959  0.9942612948989229
  0.9481366154633903  0.9999917787780959  0.4942612948989229
  0.9481366154633903  0.4999917787780958  0.9942612948989229
  0.9481366154633903  0.4999917787780958  0.4942612948989229
  0.4481366154633903  0.4999917787780958  0.9942612948989229
  0.4481366154633903  0.9999917787780959  0.9942612948989229
  0.4481366154633903  0.4999917787780958  0.4942612948989229
  0.4481366154633903  0.9999917787780959  0.4942612948989229
  0.1105409136103894  0.9284901563412653  0.4829728259827988
  0.9111015646867315  0.4239165413115273  0.5325324531541327
  0.6106470531823972  0.0712070263248137  0.9828294017270274
  0.6105409136103894  0.4284901563412653  0.9829728259827988
  0.5902246272506950  0.4999839564216195  0.6026895947342013
  0.0902246272506950  0.4999839564216195  0.1026895947342013
  0.1105409136103894  0.4284901563412653  0.4829728259827988
  0.1106470531823973  0.0712070263248137  0.4828294017270274
  0.1106470531823973  0.0712070263248137  0.9828294017270274
  0.9334788115144903  0.9998836910652250  0.4025982335900835
  0.9112277388831700  0.5762277305047262  0.0323344548690905
  0.9111015646867315  0.9239165413115275  0.0325324531541326
  0.0902246272506950  0.9999839564216194  0.1026895947342013
  0.6105409136103894  0.9284901563412653  0.4829728259827988
  0.5902246272506950  0.9999839564216194  0.1026895947342013
  0.4111015646867315  0.4239165413115273  0.0325324531541326
  0.4112277388831700  0.0762277305047263  0.0323344548690905
  0.4334788115144902  0.4998836910652251  0.4025982335900835
  0.1105409136103894  0.4284901563412653  0.9829728259827988
  0.9334788115144903  0.9998836910652250  0.9025982335900834
  0.9112277388831700  0.5762277305047262  0.5323344548690905
  0.9111015646867315  0.9239165413115275  0.5325324531541327
  0.6106470531823972  0.5712070263248137  0.9828294017270274
  0.6105409136103894  0.9284901563412653  0.9829728259827988
  0.5902246272506950  0.9999839564216194  0.6026895947342013
  0.9334788115144903  0.4998836910652251  0.9025982335900834
  0.6106470531823972  0.5712070263248137  0.4828294017270274
  0.9112277388831700  0.0762277305047263  0.5323344548690905
  0.0902246272506950  0.4999839564216195  0.6026895947342013
  0.1106470531823973  0.5712070263248137  0.4828294017270274
  0.4334788115144902  0.9998836910652250  0.9025982335900834
  0.4112277388831700  0.5762277305047262  0.5323344548690905
  0.4111015646867315  0.9239165413115275  0.5325324531541327
  0.1106470531823973  0.5712070263248137  0.9828294017270274
  0.4111015646867315  0.4239165413115273  0.5325324531541327
  0.1105409136103894  0.9284901563412653  0.9829728259827988
  0.0902246272506950  0.9999839564216194  0.6026895947342013
  0.4111015646867315  0.9239165413115275  0.0325324531541326
  0.4334788115144902  0.4998836910652251  0.9025982335900834
  0.4334788115144902  0.9998836910652250  0.4025982335900835
  0.4112277388831700  0.5762277305047262  0.0323344548690905
  0.6105409136103894  0.4284901563412653  0.4829728259827988
  0.5902246272506950  0.4999839564216195  0.1026895947342013
  0.6106470531823972  0.0712070263248137  0.4828294017270274
  0.9111015646867315  0.4239165413115273  0.0325324531541326
  0.4112277388831700  0.0762277305047263  0.5323344548690905
  0.9112277388831700  0.0762277305047263  0.0323344548690905
  0.9334788115144903  0.4998836910652251  0.4025982335900835
  0.0710614708289156  0.4999138357266161  0.5163409271549213
  0.5710614708289157  0.4999138357266161  0.0163409271549213
  0.0710614708289156  0.4999138357266161  0.0163409271549213
  0.0710614708289156  0.9999138357266162  0.0163409271549213
  0.5710614708289157  0.9999138357266162  0.5163409271549213
  0.0710614708289156  0.9999138357266162  0.5163409271549213
  0.5710614708289157  0.4999138357266161  0.5163409271549213
  0.5710614708289157  0.9999138357266162  0.0163409271549213
  0.7376658998231918  0.7500021919761508  0.7389617159568544
  0.2376658998231918  0.7500021919761508  0.2389617159568544
  0.2376658998231918  0.2500021919761508  0.7389617159568544
  0.2376658998231918  0.2500021919761508  0.2389617159568544
  0.7376658998231918  0.2500021919761508  0.7389617159568544
  0.7376658998231918  0.2500021919761508  0.2389617159568544
  0.7376658998231918  0.7500021919761508  0.2389617159568544
  0.2376658998231918  0.7500021919761508  0.7389617159568544
