POSCAR_2x2x2_MAPCl
 1.0000000000000000
    11.3599999999999994    0.0000000000000000    0.0000000000000000
     0.0000000000000000   11.3599999999999994    0.0000000000000000
     0.0000000000000000    0.0000000000000000   11.3599999999999994
   C  Cl   H   N  Pb
   8  24  48   8   8
Direct
  0.4467753387935148  0.4999905105840234  0.4883935021708936
  0.4467753387935148  0.9999905105840234  0.9883935021708936
  0.9467753387935148  0.4999905105840234  0.4883935021708936
  0.4467753387935148  0.4999905105840234  0.9883935021708936
  0.9467753387935148  0.4999905105840234  0.9883935021708936
  0.9467753387935148  0.9999905105840234  0.4883935021708936
  0.4467753387935148  0.9999905105840234  0.4883935021708936
  0.9467753387935148  0.9999905105840234  0.9883935021708936
  0.2139609661277788  0.9999957145132896  0.2603380091685566
  0.4866542486469783  0.7500526282897796  0.2190398199947090
  0.7134533580469196  0.7499450367249985  0.9878553282715431
  0.2134533580469196  0.7499450367249985  0.9878553282715431
  0.2139609661277788  0.9999957145132896  0.7603380091685565
  0.7139609661277788  0.9999957145132896  0.7603380091685565
  0.7134533580469196  0.7499450367249985  0.4878553282715430
  0.9866542486469784  0.2500526282897795  0.7190398199947090
  0.7139609661277788  0.4999957145132896  0.2603380091685566
  0.9866542486469784  0.7500526282897796  0.2190398199947090
  0.2134533580469196  0.7499450367249985  0.4878553282715430
  0.7139609661277788  0.9999957145132896  0.2603380091685566
  0.7134533580469196  0.2499450367249985  0.9878553282715431
  0.7139609661277788  0.4999957145132896  0.7603380091685565
  0.7134533580469196  0.2499450367249985  0.4878553282715430
  0.9866542486469784  0.2500526282897795  0.2190398199947090
  0.4866542486469783  0.7500526282897796  0.7190398199947090
  0.2139609661277788  0.4999957145132896  0.2603380091685566
  0.2134533580469196  0.2499450367249985  0.4878553282715430
  0.4866542486469783  0.2500526282897795  0.7190398199947090
  0.4866542486469783  0.2500526282897795  0.2190398199947090
  0.2134533580469196  0.2499450367249985  0.9878553282715431
  0.2139609661277788  0.4999957145132896  0.7603380091685565
  0.9866542486469784  0.7500526282897796  0.7190398199947090
  0.9054675858468286  0.0794878755036059  0.5249325876927422
  0.9054675858468286  0.5794878755036059  0.5249325876927422
  0.4053597045454609  0.9206084008512789  0.0250624959145860
  0.4054675858468286  0.5794878755036059  0.0249325876927422
  0.9385570050967864  0.9999156500577406  0.8920209669065002
  0.9385570050967864  0.4999156500577406  0.8920209669065002
  0.0868487250167504  0.9999677246993954  0.1114697519901852
  0.9053597045454610  0.4206084008512790  0.5250624959145861
  0.6160568987984654  0.0743464056046541  0.9883295583733586
  0.6159730433034909  0.4254245857287274  0.9884090538041050
  0.5868487250167506  0.4999677246993954  0.6114697519901853
  0.4385570050967864  0.9999156500577406  0.3920209669065002
  0.4385570050967864  0.4999156500577406  0.3920209669065002
  0.0868487250167504  0.4999677246993954  0.1114697519901852
  0.1159730433034909  0.4254245857287274  0.4884090538041051
  0.4054675858468286  0.0794878755036059  0.0249325876927422
  0.9385570050967864  0.9999156500577406  0.3920209669065002
  0.9054675858468286  0.5794878755036059  0.0249325876927422
  0.9053597045454610  0.9206084008512789  0.0250624959145860
  0.6160568987984654  0.5743464056046541  0.4883295583733585
  0.6159730433034909  0.9254245857287273  0.4884090538041051
  0.5868487250167506  0.9999677246993954  0.1114697519901852
  0.4385570050967864  0.4999156500577406  0.8920209669065002
  0.4053597045454609  0.4206084008512790  0.0250624959145860
  0.9053597045454610  0.9206084008512789  0.5250624959145861
  0.6159730433034909  0.4254245857287274  0.4884090538041051
  0.1159730433034909  0.9254245857287273  0.4884090538041051
  0.1160568987984654  0.5743464056046541  0.4883295583733585
  0.0868487250167504  0.4999677246993954  0.6114697519901853
  0.5868487250167506  0.9999677246993954  0.6114697519901853
  0.4385570050967864  0.9999156500577406  0.8920209669065002
  0.4054675858468286  0.5794878755036059  0.5249325876927422
  0.4053597045454609  0.9206084008512789  0.5250624959145861
  0.1160568987984654  0.5743464056046541  0.9883295583733586
  0.1159730433034909  0.9254245857287273  0.9884090538041050
  0.5868487250167506  0.4999677246993954  0.1114697519901852
  0.0868487250167504  0.9999677246993954  0.6114697519901853
  0.6159730433034909  0.9254245857287273  0.9884090538041050
  0.1159730433034909  0.4254245857287274  0.9884090538041050
  0.1160568987984654  0.0743464056046541  0.9883295583733586
  0.4053597045454609  0.4206084008512790  0.5250624959145861
  0.4054675858468286  0.0794878755036059  0.5249325876927422
  0.6160568987984654  0.5743464056046541  0.9883295583733586
  0.9385570050967864  0.4999156500577406  0.3920209669065002
  0.9054675858468286  0.0794878755036059  0.0249325876927422
  0.9053597045454610  0.4206084008512790  0.0250624959145860
  0.6160568987984654  0.0743464056046541  0.4883295583733585
  0.1160568987984654  0.0743464056046541  0.4883295583733585
  0.0727812020330702  0.4999280325044992  0.0205050217378364
  0.5727812020330703  0.9999280325044994  0.5205050217378364
  0.0727812020330702  0.9999280325044994  0.0205050217378364
  0.5727812020330703  0.9999280325044994  0.0205050217378364
  0.5727812020330703  0.4999280325044992  0.5205050217378364
  0.0727812020330702  0.4999280325044992  0.5205050217378364
  0.5727812020330703  0.4999280325044992  0.0205050217378364
  0.0727812020330702  0.9999280325044994  0.5205050217378364
  0.2371026177439362  0.2499886584379851  0.2415377739750007
  0.7371026177439362  0.2499886584379851  0.7415377739750006
  0.7371026177439362  0.2499886584379851  0.2415377739750007
  0.2371026177439362  0.7499886584379851  0.7415377739750006
  0.7371026177439362  0.7499886584379851  0.7415377739750006
  0.2371026177439362  0.2499886584379851  0.7415377739750006
  0.7371026177439362  0.7499886584379851  0.2415377739750007
  0.2371026177439362  0.7499886584379851  0.2415377739750007
