POSCAR_4x4x4_MAPI
 1.0000000000000000
    12.5802402495999992    0.0000000000000000    0.0000000000000000
     0.0001553880000000   12.5477800360000007    0.0000000000000000
    -0.0793351420000000   -0.0003075862000000   12.5938300832000003
   C   H   I   N  Pb
   8  48  24   8   8
Direct
  0.4513899980000001  0.4999814930000000  0.4981675149999999
  0.9513899980000000  0.4999814930000000  0.9981675149999999
  0.9513899980000000  0.9999814929999999  0.4981675149999999
  0.9513899980000001  0.4999814930000000  0.4981675149999999
  0.4513899980000001  0.4999814930000000  0.9981675149999999
  0.4513899980000001  0.9999814929999999  0.9981675149999999
  0.4513899980000001  0.9999814929999999  0.4981675149999999
  0.9513899980000000  0.9999814929999999  0.9981675149999999
  0.4187945124999999  0.9282580020000000  0.5361915005000000
  0.4188970029999999  0.5718785005000000  0.5359640010000000
  0.4322539865000001  0.9998565020000000  0.9128674864999999
  0.9188970030000001  0.5718785005000000  0.0359640010000000
  0.9187945125000000  0.9282580020000001  0.0361915005000000
  0.6037940010000000  0.5671370029999999  0.4790669980000000
  0.6036965025000001  0.9325315060000000  0.4792484940000000
  0.1037940010000000  0.5671370029999999  0.9790669979999999
  0.1036965025000000  0.9325315060000000  0.9792484939999999
  0.9322539865000000  0.9998565019999999  0.4128674865000000
  0.5910065025000000  0.5000015000000000  0.0926764980000000
  0.9322539865000001  0.4998565020000000  0.4128674865000000
  0.9188970030000000  0.0718785005000000  0.0359640010000000
  0.9187945125000001  0.4282580020000000  0.0361915005000000
  0.6037940010000000  0.0671370030000000  0.4790669980000000
  0.6036965025000001  0.4325315060000000  0.4792484940000000
  0.5910065025000000  0.0000015000000000  0.0926764980000000
  0.5910065025000001  0.0000015000000000  0.5926764980000000
  0.6036965025000001  0.4325315060000000  0.9792484939999999
  0.6037940010000001  0.0671370030000000  0.9790669979999999
  0.9187945125000001  0.4282580020000000  0.5361915005000000
  0.0910065025000000  0.5000015000000000  0.5926764980000000
  0.9188970030000000  0.0718785005000000  0.5359640010000000
  0.0910065025000000  0.5000015000000000  0.0926764980000000
  0.1037940010000000  0.5671370029999999  0.4790669980000000
  0.4322539865000001  0.4998565020000000  0.4128674865000000
  0.4188970030000000  0.0718785005000000  0.0359640010000000
  0.4187945125000000  0.4282580020000000  0.0361915005000000
  0.1037940010000000  0.0671370030000000  0.4790669980000000
  0.1036965025000000  0.4325315060000000  0.4792484940000000
  0.0910065025000000  0.0000015000000000  0.0926764980000000
  0.5910065025000001  0.5000015000000000  0.5926764980000000
  0.6036965025000001  0.9325315060000000  0.9792484939999999
  0.6037940010000001  0.5671370029999999  0.9790669979999999
  0.9187945125000001  0.9282580020000000  0.5361915005000000
  0.9188970030000000  0.5718785005000000  0.5359640010000000
  0.1036965025000000  0.9325315060000000  0.4792484940000000
  0.9322539865000001  0.4998565020000000  0.9128674864999999
  0.4188970030000000  0.0718785005000000  0.5359640010000000
  0.4187945125000000  0.4282580020000000  0.5361915005000000
  0.1037940010000000  0.0671370030000000  0.9790669979999999
  0.1036965025000000  0.4325315060000000  0.9792484939999999
  0.0910065025000000  0.0000015000000000  0.5926764980000000
  0.9322539865000001  0.9998565020000000  0.9128674864999999
  0.4322539865000001  0.4998565020000000  0.9128674864999999
  0.4187945124999999  0.9282580020000001  0.0361915005000000
  0.4188970029999999  0.5718785005000000  0.0359640010000000
  0.4322539865000001  0.9998565019999999  0.4128674865000000
  0.9814490080000001  0.2501134870000000  0.7238734959999999
  0.7134014965000002  0.7499414980000001  0.9863044919999998
  0.9814490080000001  0.7501134869999999  0.2238734960000000
  0.7179300040000000  0.5000225000000000  0.2532710135000000
  0.7134014965000002  0.2499414980000000  0.9863044919999998
  0.7134014965000000  0.7499414979999999  0.4863044919999999
  0.7179300040000001  0.0000225000000000  0.7532710134999999
  0.4814490080000001  0.7501134870000001  0.7238734959999999
  0.9814490079999999  0.2501134870000000  0.2238734960000000
  0.2134014965000000  0.2499414980000000  0.4863044919999999
  0.2179300040000000  0.0000225000000000  0.2532710135000000
  0.4814490080000001  0.2501134870000000  0.2238734960000000
  0.2134014965000000  0.2499414980000000  0.9863044919999998
  0.2179300040000000  0.0000225000000000  0.7532710134999999
  0.4814490080000001  0.2501134870000000  0.7238734959999999
  0.2134014965000000  0.7499414979999999  0.4863044919999999
  0.2179300040000000  0.5000225000000000  0.2532710135000000
  0.4814490080000001  0.7501134869999999  0.2238734960000000
  0.9814490080000001  0.7501134870000001  0.7238734959999999
  0.2134014965000000  0.7499414980000001  0.9863044919999998
  0.2179300040000000  0.5000225000000000  0.7532710134999999
  0.7179300040000000  0.0000225000000000  0.2532710135000000
  0.7134014965000000  0.2499414980000000  0.4863044919999999
  0.7179300040000000  0.5000225000000000  0.7532710134999999
  0.0682915000000000  0.9999135134999998  0.5124390005000000
  0.0682915000000000  0.4999135135000000  0.0124390005000000
  0.0682915000000000  0.4999135135000000  0.5124390005000000
  0.5682915000000001  0.9999135134999998  0.5124390005000000
  0.0682915000000000  0.9999135135000000  0.0124390005000000
  0.5682915000000001  0.4999135135000000  0.5124390005000000
  0.5682915000000001  0.9999135135000000  0.0124390005000000
  0.5682915000000001  0.4999135135000000  0.0124390005000000
  0.7380854935000002  0.2500154970000000  0.7378235009999999
  0.2380854935000000  0.7500154969999998  0.7378235009999999
  0.2380854935000000  0.2500154970000000  0.7378235009999999
  0.7380854935000000  0.2500154970000000  0.2378235010000000
  0.7380854935000000  0.7500154969999998  0.2378235010000000
  0.2380854935000000  0.2500154970000000  0.2378235010000000
  0.7380854935000002  0.7500154969999998  0.7378235009999999
  0.2380854935000000  0.7500154969999998  0.2378235010000000
